id,username,created_at,lng,lat,text
1519012661698125827,Ishoot_3s14,Tue Apr 26 17:56:55 +0000 2022,-85.6881065,38.120774499999996,Kentucky‚Äôs finest!
1519012662943920133,IAmMylesTurner,Tue Apr 26 17:56:55 +0000 2022,-72.497865,42.365501,@_gerrell_ Pineapple so crazyüòÇ
1519012662230732800,PhilPerkinsCHCH,Tue Apr 26 17:56:55 +0000 2022,-79.9135205,43.2606955,@minakimes @PabloTorre Soon https://t.co/F9UZ9luE3Y
1519012663640031232,JesusECast,Tue Apr 26 17:56:55 +0000 2022,-104.789327,38.8885185,@RobertKirkbri18 He doesn't even know he has a Twitter account
1519012662826438662,MagnumSilentium,Tue Apr 26 17:56:55 +0000 2022,-83.1738665,32.6782075,"next time you want to talk about your life &amp; try to convince me that you have much to offer ""the world"" here's what‚Ä¶ https://t.co/NFpPlv0iWF"
1519012663803711491,SlothOcelot,Tue Apr 26 17:56:55 +0000 2022,-96.7617535,32.819858499999995,this is a positive work change
1519012664239792129,RichieRichbx,Tue Apr 26 17:56:55 +0000 2022,-73.99202,40.73454,Save the date. Comedy is back. #djlifestyle #comedy #fun #laugh #dj  #mothersday #event @ Bar 13 https://t.co/waKsfqQCYo
1519012665208811521,MiaOuterspace77,Tue Apr 26 17:56:55 +0000 2022,-80.02511050000001,40.52118900000001,@Nat_m0_rr1 Well my point is that I didn‚Äôt post that.
1519012664772542464,nathanpboston,Tue Apr 26 17:56:55 +0000 2022,-93.2620465,44.9706105,Great place to do a conference call. https://t.co/lCvY0vpGDS
1519012665628274695,alectavarez,Tue Apr 26 17:56:56 +0000 2022,-100.0768885,31.1688935,21st century Shakespeare @ChiefKeef #BangBang
1519012665854554113,AndyMatteo_,Tue Apr 26 17:56:56 +0000 2022,-118.1567105,33.809171500000005,"online. This includes; women, people of color, lesbian, gay, bisexual, transgender, queer, intersex, asexual indivi‚Ä¶ https://t.co/g4nT9KoTYA"
1519012666181918720,dommistress11,Tue Apr 26 17:56:56 +0000 2022,-83.804475,27.698681999999998,Available for Skype sessions as well
1519012666580385792,El_Jenius,Tue Apr 26 17:56:56 +0000 2022,-98.319925,38.498196,@Route_60plus Bob oldhart
1519012666991333376,impactnyouth,Tue Apr 26 17:56:56 +0000 2022,-79.2446,43.7737,"Just posted a photo @ Scarborough, Toronto https://t.co/YIYshAsrdh"
1519012667645648896,Scottslifeeh,Tue Apr 26 17:56:56 +0000 2022,-80.2739375,43.147571,@geostylegeo Above my pay grade sir.
1519012668148965376,MelAnn51,Tue Apr 26 17:56:56 +0000 2022,-86.3918345,39.7672235,Who the hell is this Shaun King dude that is all over my timeline?
1519012668132143105,tmj_FAY_skltrd,Tue Apr 26 17:56:56 +0000 2022,-78.6141709,35.7112642,"Have you ever had a role like ""Diesel Mechanic Technician *$2,500 Sign On Bonus!*""? What did you like most about th‚Ä¶ https://t.co/gOAQ0kspJn"
1519012668618682370,sidney_ella,Tue Apr 26 17:56:56 +0000 2022,-122.3306025,47.614817,@Opsimath57 @rob_lowy912 Good thing there's nothing dangerous about pregnancy üò®
1519012669038088192,HumboldtLlc,Tue Apr 26 17:56:56 +0000 2022,-119.30660750000001,37.2691755,Supporting a baller https://t.co/rAuCCHV8F6
1519012669675741184,Napalm_39,Tue Apr 26 17:56:56 +0000 2022,-79.42086499999999,38.003375500000004,"As someone who‚Äôs got mental health advocacy tattoos on him, I just don‚Äôt feel sorry for him. I don‚Äôt buy this. I ju‚Ä¶ https://t.co/XoUTN1qJ6C"
1519012669814034432,tmj_AZS_HR,Tue Apr 26 17:56:57 +0000 2022,-112.0740373,33.4483771,"Don't submit then quit. Apply for jobs like ""Regional Director of Employee Relations"" at Southwest Key, then look f‚Ä¶ https://t.co/3XHUVCitq7"
1519012671248605184,alexesnikole,Tue Apr 26 17:56:57 +0000 2022,-83.099288,42.3527865,My fav thing to do.
1519012671789535233,tmj_nyc_it,Tue Apr 26 17:56:57 +0000 2022,-74.3046712,40.6975106,This #IT job might be a great fit for you. Click the link in our bio to see it and more. Manager of Digital Content‚Ä¶ https://t.co/UYQacsIxjH
1519012672242692096,pursuearete,Tue Apr 26 17:56:57 +0000 2022,-73.9487755,40.655138,Lol someone said he‚Äôs technically an Apartheid American.
1519012672339120130,Fury7v7,Tue Apr 26 17:56:57 +0000 2022,-95.17400599999999,30.154423,Great work @tice_williams !! 2024 üÜô
1519012672980799491,Rip_bigskoop,Tue Apr 26 17:56:57 +0000 2022,-86.27053950000001,45.001180000000005,I need a plant job
1519012674146820104,aubsbunny,Tue Apr 26 17:56:58 +0000 2022,-97.754724,30.323345500000002,"@Everyone_Every2 there are actually THREE üò≠ but from what i understand, the DVD version and the digital code versio‚Ä¶ https://t.co/4rDnbQPLIh"
1519012674205626368,goaheadanddie82,Tue Apr 26 17:56:58 +0000 2022,-83.1860565,42.170291500000005,Here Comes The Pain. #happyblateedbirddayAlP. Fees inn sucH https://t.co/qQaIpcTYjH
1519012673475780613,AustinDavisPA,Tue Apr 26 17:56:57 +0000 2022,-76.883826,40.264521,Thrilled to welcome @TripleA2 and @martellforpa to the @PaHouseDems! They will be strong advocates for working clas‚Ä¶ https://t.co/mkqQKxYhxW
1519012674431975424,tmj_jax_labor,Tue Apr 26 17:56:58 +0000 2022,-81.655651,30.3321838,This job might be a great fit for you: Warehouse Associate or Forklift Operator - https://t.co/iWBceZqHZc #KellyJobs #KellyServices
1519012674964799494,Pembo_3,Tue Apr 26 17:56:58 +0000 2022,-85.7682405,37.822244,@dgberquist Sameeeee
1519012674805321730,ck4basketball,Tue Apr 26 17:56:58 +0000 2022,-79.9806895,40.431388999999996,"If you pay for AAU, you have an argument for equal playing time. If it‚Äôs a shoe circuit/sponsored team, the goal‚Ä¶ https://t.co/6FV13LKbbx"
1519012675291955201,ChopsHoneyFarm,Tue Apr 26 17:56:58 +0000 2022,-92.4367735,38.3045585,@RepMarieNewman Clearly you are a trash representative
1519012676558594051,LisaTyl45632940,Tue Apr 26 17:56:58 +0000 2022,-83.1738665,32.6782075,@DarkHorseRisin2 Rand paul is a f*cking idiot A**!
1519012677351313408,bnitty,Tue Apr 26 17:56:58 +0000 2022,-98.319925,38.498196,üó£letdown go #ManCity #UCL
1519012677607215105,chorizy,Tue Apr 26 17:56:58 +0000 2022,-87.732013,41.8335845,@ArchiJake @ihave5broats @jonklemke @MrDelicious13 @whitesox Not a specific project. Just when they started opening‚Ä¶ https://t.co/L0OxJbUIhH
1519012677787566080,SandraBirdlover,Tue Apr 26 17:56:58 +0000 2022,-73.9685415,40.780709,@wildnewyorkshow @BirdCentralPark Indeed. Lovely wood thrush shot &amp; bird.
1519012677800054785,sovucu_siksok,Tue Apr 26 17:56:58 +0000 2022,-79.42086499999999,38.003375500000004,@joseniltoncrf81 @simpraisa @GoalBR We want him so much https://t.co/LekVQ4dTvm
1519012678445899776,GreysonHolle,Tue Apr 26 17:56:59 +0000 2022,-104.99718999999999,39.647635,This lady rules
1519012679599464449,JanneauxD,Tue Apr 26 17:56:59 +0000 2022,-77.7289885,39.634461,@StopItYouNob @kristiof05 @daveconte1971 @SaraGonzalesTX As long as you wait 7 days....
1519012678676541440,Faugustus2nd,Tue Apr 26 17:56:59 +0000 2022,-122.194398,47.481598,"Along the Duwamish/Green River trail, Renton/Kent WA. Highly engineered banks, flood control, created great habitat‚Ä¶ https://t.co/9Mdb0Wzkub"
1519012680132173824,ijezabelle_jane,Tue Apr 26 17:56:59 +0000 2022,-80.6460595,40.363631,"I wanna know who's out there in some fucking dodge or Ford, that keeps revving their engine a few times and then wh‚Ä¶ https://t.co/GxpKrcPHQS"
1519012680291561473,myahellisxoxo,Tue Apr 26 17:56:59 +0000 2022,-86.55824799999999,30.461440500000002,"‚Äúold enough to know better, young enough to not care‚Äù really defines me i think"
1519012680266362885,334Bril,Tue Apr 26 17:56:59 +0000 2022,-84.433106,33.7671945,HBD TO A BIG SLIME üêçüî• https://t.co/LNR2iU4jKA
1519012681218498560,alexisdruu,Tue Apr 26 17:56:59 +0000 2022,-86.1429225,39.7795625,My mom pressured me to go into college directly out of high school. I was dismissed twice due to academic probation‚Ä¶ https://t.co/gW8n7JD8sJ
1519012681746980874,ExploreUCity,Tue Apr 26 17:56:59 +0000 2022,-90.321908,38.66321255,Happy Springtime. Come visit us 10am-5pm  Reposted from @kismetstl @ Kismet Pharmacy &amp; General Store https://t.co/ZA8xIxOwYO
1519012681994412032,TheIsaiahAllen,Tue Apr 26 17:56:59 +0000 2022,-81.60280399999999,41.4131905,Thank you for the invite!! @CoachRenoYale https://t.co/zTNr8A06KZ
1519012682631893000,alohaleyy,Tue Apr 26 17:57:00 +0000 2022,-78.8818,42.993664499999994,she was going through itüíî https://t.co/39bO21qpWT
1519012683080777728,MrsSlimeyouout,Tue Apr 26 17:57:00 +0000 2022,-75.22698600000001,43.119679500000004,Im banking on him. He the bank or w.e gunna said üòâ
1519012683378528256,DerrickDavisJr3,Tue Apr 26 17:57:00 +0000 2022,-81.6673005,29.647083000000002,@D0RKYBUTTSLUT You know if it gonna be cute that if Daisy have busty milkers and called Luigi's attention and says.‚Ä¶ https://t.co/2OKUruJgaw
1519012683776880640,Hakeem__13,Tue Apr 26 17:57:00 +0000 2022,-118.1567105,33.809171500000005,She need to sell the team to @Twitch
1519012684074733569,shenbaseball7,Tue Apr 26 17:57:00 +0000 2022,-78.9652965,38.106462,"Severe storm with hail, high winds and pouring rain blitzed through Augusta County in the last hour knocking out po‚Ä¶ https://t.co/ysz6oXBNAi"
1519012684783566851,BugM17,Tue Apr 26 17:57:00 +0000 2022,-75.8001415,45.248791,@Chaparrita_xo_ Always. I think he should give us all another chance üòÇ
1519012685119168514,AthensLuke,Tue Apr 26 17:57:00 +0000 2022,-96.961483,32.863917,@itsLennonSmith This is the correct answer
1519012685228167170,TerrellDashon,Tue Apr 26 17:57:00 +0000 2022,-94.5592815,39.1000485,I‚Äôm the rawest nigga in my city
1519012685135892480,RavenLoki,Tue Apr 26 17:57:00 +0000 2022,-74.0069656,40.6574135,So refreshing easy start to my flight @bigalicebrewing - Drinking an Edie's Big Adventure by @bigalicebrewing at‚Ä¶ https://t.co/9S7Cg23HTh
1519012685542797312,MarkeyaNubian,Tue Apr 26 17:57:00 +0000 2022,-77.57245499999999,43.211766999999995,@TarynLaFlare We all definitely trained to go lol
1519012686201188352,MattWhite_95,Tue Apr 26 17:57:00 +0000 2022,-117.104989,32.810012,And honestly a huge fuck you to basically every hospital and health system in this country for hanging up dumbass b‚Ä¶ https://t.co/lhZgqXNXOD
1519012686511710212,HeatherBrito,Tue Apr 26 17:57:01 +0000 2022,-70.938921,41.668285999999995,@starsmoonandsun üòÇüòÇüòÇ oh my goodness. I‚Äôm a Taurus but my Rico score and net worth or any of that is not going in my‚Ä¶ https://t.co/MXDz26vIeH
1519012686960508929,izzyfarianast,Tue Apr 26 17:57:01 +0000 2022,-71.0887125,42.3136695,Can we skip to the part that I don‚Äôt have to work anymore ü´†
1519012686264213505,cincygreghoodin,Tue Apr 26 17:57:00 +0000 2022,-84.324364,39.071533,Celebrating #NationalPretzelDay accordingly @ServatiiPastry getting totally twisted in pretzel form #eatcincy‚Ä¶ https://t.co/ZVEpmnL1Fg
1519012688004669440,Christi61105872,Tue Apr 26 17:57:01 +0000 2022,-111.73856649999999,33.295215,@WallStreetQuee2 @OccupyDemocrats Absolutely üëçüóΩüíô
1519012687187005441,Truckbandit6,Tue Apr 26 17:57:01 +0000 2022,-73.015619,41.67863,"12 Passenger Van Only 18,000 milesMitch @ Terryville Chevy 860-510-1597 call/text#chevy #chevrolet‚Ä¶ https://t.co/rAZp1v6FbH"
1519012688101355525,bengaljims_BTR,Tue Apr 26 17:57:01 +0000 2022,-84.53981250000001,39.137038000000004,"@Whodeyksh20 @700wlw NY, Tampa, Cleveland, pitts etc‚Ä¶ just as good if not better .. I could go in and on"
1519012687631589377,MercuryClubKC,Tue Apr 26 17:57:01 +0000 2022,-94.607134,39.033053,Great presentation today by Tom Corbin of ‚Å¶@CorbinBronze‚Å© https://t.co/5R7CmfZNJe
1519012689074221056,DanHill28240965,Tue Apr 26 17:57:01 +0000 2022,-112.543989,33.43562,@jrfjr4 @BBCWorld My guess is he‚Äôll fit in both topics.
1519012688067633154,_EseCarlos,Tue Apr 26 17:57:01 +0000 2022,-111.931711,34.1682535,Every day we stray further from the light of God. https://t.co/3HerwaGhmX
1519012690009722880,iwaspoisoned_,Tue Apr 26 17:57:01 +0000 2022,-91.029335,30.543453,"Raising Canes - Baton Rouge, Louisiana - I never usually get this food but my friend wanted to go so i didn‚Äôt compl‚Ä¶ https://t.co/vOYfZ51wIU"
1519012690190032896,teritighe,Tue Apr 26 17:57:01 +0000 2022,-75.0748885,39.915827,Check out @w_white's video. Check out William White's video! #TikTok https://t.co/9tgDEyjD3b
1519012689682612229,ViewSeafood,Tue Apr 26 17:57:01 +0000 2022,-73.13484700000001,40.7401555,"Perfectly plated. üçΩÔ∏è Seared Scottish Salmon with smoked potato hash, bacon, onion, spinach &amp; whole grain mustard cr‚Ä¶ https://t.co/B6XcE89yse"
1519012690533879808,itshaleighhh,Tue Apr 26 17:57:01 +0000 2022,-122.43027699999999,48.753352500000005,i don‚Äôt know who needs to hear this but you can ask your doctor for a different sized speculum.
1519012690877988867,CAPOSTATU5,Tue Apr 26 17:57:02 +0000 2022,-84.612392,34.0110765,a hoe daughter
1519012690936705025,lopez_kiersten,Tue Apr 26 17:57:02 +0000 2022,-97.326981,27.879162,My niece showing out !! #freshmanszn
1519012692765331458,Illuminativisi,Tue Apr 26 17:57:02 +0000 2022,-95.44648649999999,29.838495,"Remember, we're always looking out for your betterment and prosperity as a species. After all, you're safest with u‚Ä¶ https://t.co/CnYxul7Nm8"
1519012693121937410,Amazing75737030,Tue Apr 26 17:57:02 +0000 2022,-94.5592815,39.1000485,@machosscaliente Nice body nice cock but I was sitting on that one day
1519012693608480768,Mjoseph492,Tue Apr 26 17:57:02 +0000 2022,-73.9685415,40.780709,@LukeHearfield @Ghostbusters @ColumbiaPicPH Correct
1519012694283726850,Excalibur_TTP,Tue Apr 26 17:57:02 +0000 2022,-89.2665075,39.7393005,Lunch time! Please check out:@GRAV3STORM-mahbles@MakQuit-warzone@NikaeTD14-no mans sky@brumfiel13-smokin‚Äô‚Ä¶ https://t.co/bK1WgYgb11
1519012694652772352,Nikes_Own,Tue Apr 26 17:57:02 +0000 2022,-112.12467649999999,33.5528625,@TheRealFTP Since we took McDaniel from yall..49ner fans seems but hurt
1519012694405300225,WilkersonK106,Tue Apr 26 17:57:02 +0000 2022,-91.96211199999999,38.847877,"Your turn, my turn. #fecchornets #fultonproud https://t.co/2sfibUm8D0"
1519012695948812288,BHCstonePub,Tue Apr 26 17:57:03 +0000 2022,-88.01911,44.51983,"Broast Titletown, thanks for the pre-opening pints! @ Titletown Brewing Co. https://t.co/2grLYrBKzH"
1519012698188623872,RedTreeMike,Tue Apr 26 17:57:03 +0000 2022,-79.86566350000001,40.133265,@TheBurgundyZone I did read if we trade Payne it‚Äôs a REAL possibility we sign DT Star L‚Ä¶ the guy who was in Carolina
1519012700076052480,waltfrazier11,Tue Apr 26 17:57:04 +0000 2022,-88.8216885,33.456503999999995,@ToluSmith1 LETS GO
1519012700361211906,TrackstarGiac,Tue Apr 26 17:57:04 +0000 2022,-83.804475,27.698681999999998,I‚Äôm ready to coach again‚Ä¶ I wonder if any Jax High schools needs a coach ?
1519012699375476736,psychedelicraig,Tue Apr 26 17:57:04 +0000 2022,-122.3306025,47.614817,Working from my rooftop. #Seattle#TuesdayMotivaton #TuesdayVibe #TuesdayMotivations #SpringVibes #Spring #Colors‚Ä¶ https://t.co/a2aLlgBjum
1519012701040779265,BrennTremendous,Tue Apr 26 17:57:04 +0000 2022,-96.621634,32.907642,We‚Äôve just adopted new technology called Yeti‚Äôs.
1519012701242118145,myphonesabt2die,Tue Apr 26 17:57:04 +0000 2022,-97.754724,30.323345500000002,@jeanetteg_320 Same ü´†
1519012701959340032,ashelxyz,Tue Apr 26 17:57:04 +0000 2022,-97.28591349999999,32.7799665,What a beautiful day!
1519012701720264704,MDSavesWater,Tue Apr 26 17:57:04 +0000 2022,-90.067603,29.954233,Day 2 @ASICNational conference in #NOLA! #MoreCropPerDrop #JAINDrop getting all the attention! https://t.co/0TaeGyw2tF
1519012703477587971,EJ119,Tue Apr 26 17:57:05 +0000 2022,-76.906682,38.878411,@nathaliejacoby1 Nope!
1519012701523124224,mollyforvermont,Tue Apr 26 17:57:04 +0000 2022,-73.088297,44.8068285,Thank you St. Albans! We enjoyed every bit of the return of the Vermont Maple Festival and especially seeing so man‚Ä¶ https://t.co/o9B00WAtU9
1519012704689614849,bartikadutta2,Tue Apr 26 17:57:05 +0000 2022,-123.123581,49.257639,"@AcyRunway13 You are welcome, Dave üíï."
1519012705860034561,511NY,Tue Apr 26 17:57:05 +0000 2022,-73.887138,40.873244,Cleared: Incident on #BLine SB from Bedford Park Blvd to Brighton Beach
1519012705922957313,dannysoup,Tue Apr 26 17:57:05 +0000 2022,-122.89156,49.22387,Just posted a photo @ Brewery District https://t.co/LhaPZZwK64
1519012706275143680,Desautomatas,Tue Apr 26 17:57:05 +0000 2022,-115.23443549999999,36.0188045,Facts
1519012706367381505,soulpole415,Tue Apr 26 17:57:05 +0000 2022,-122.4359785,37.7706565,@ZeekArkham Or because you‚Äôre a clown
1519012706816249862,511NY,Tue Apr 26 17:57:05 +0000 2022,-73.887138,40.873244,Cleared: Incident on #QLine from Bedford Park Blvd to Brighton Beach
1519012707218997249,FIO_Baseball,Tue Apr 26 17:57:05 +0000 2022,-78.3944805,40.463361,@padresscout123 @FlatgroundBats @FlatgroundApp This kid is in 7th grade??????
1519012707193733123,Latinvixen,Tue Apr 26 17:57:05 +0000 2022,-81.7466685,28.588584500000003,@_Uro You get to experience a puppy when you come. Good thing is papillons are smart and easy to train ü•∞
1519012707852165120,AntonioILiranzo,Tue Apr 26 17:57:06 +0000 2022,-118.4119065,34.0207895,"I think, I‚Äôm starting to get use to this alone time ‚ú®üíñ."
1519012708171100160,511nyBDFV,Tue Apr 26 17:57:06 +0000 2022,-73.887138,40.873244,Cleared: Incident on #BLine SB from Bedford Park Blvd to Brighton Beach
1519012708254773249,cbmorin1,Tue Apr 26 17:57:06 +0000 2022,-117.696991,49.289007,@AaronParnas You should be like me and ignore most if not all Republicans making comments
1519012708829511680,OneQuaan,Tue Apr 26 17:57:06 +0000 2022,-87.9672925,43.0567225,I'm wearing all in blue cuz im stuck in diamonds
1519012708896628742,LeBakedFox,Tue Apr 26 17:57:06 +0000 2022,-96.835249,33.1501395,Outside been trying to kill me all my life..
1519012709257252864,l0vely_heartss,Tue Apr 26 17:57:06 +0000 2022,-111.7375655,33.4057545,@AlexWasTaken9 @xairawrig xai#5041(if it doesn't work he probably changed it) enjoy
1519012710226309131,DatMarquis,Tue Apr 26 17:57:06 +0000 2022,-98.5406515,29.417501,"@SincereScott10 @DariusTheeGreat @SportsCenter Steve Kerr hit a clutch shot for MJ, Horry hit clutch shots for both‚Ä¶ https://t.co/pRYSTE4hFc"
1519012710544990208,GerryCarlin,Tue Apr 26 17:57:06 +0000 2022,-80.86455649999999,35.568434499999995,There is a large contingent of NY Mets fans that just can‚Äôt enjoy what‚Äôs transpiring so far this season. The Cano b‚Ä¶ https://t.co/dWW94DQ0gH
1519012709840211969,Katr_Matthews,Tue Apr 26 17:57:06 +0000 2022,-113.5777655,37.0855815,Out in Utah üá∫üá∏ for the @IRONMANtri World Championships.It will be 938 days since the last World Champ was held! (‚Ä¶ https://t.co/jZ5lcCIIEP
1519012711597805568,NicholasKhobb,Tue Apr 26 17:57:06 +0000 2022,-84.433106,33.7671945,"Matthew 12:25 And Jesus knew their thoughts, and said unto them, Every kingdom divided against itself is brought to‚Ä¶ https://t.co/nN6nZuN9E5"
1519012709991391237,B_21_Aguirre,Tue Apr 26 17:57:06 +0000 2022,-100.0768885,31.1688935,"2 Ws last night and ended the season on a high note! 2 for 5 at the dish, 2 hits, 4 RBI, in the park HR, Double and‚Ä¶ https://t.co/PjJPsh3wLB"
1519012712059183104,TarboroBill,Tue Apr 26 17:57:07 +0000 2022,-77.8116535,35.972276,@SupDogsECU Old people like me heading to Google... https://t.co/I4qVcPq2Im
1519012712906477571,RonAguirre4real,Tue Apr 26 17:57:07 +0000 2022,-91.0907995,30.4591,@KaiZen_Rams @C_dez555 @bgrisakDTR Agreed. It‚Äôs more accurate to say we lost depth at OL (due to promotions) than t‚Ä¶ https://t.co/511KrhRwnR
1519012712675635200,tmj_chh_retail,Tue Apr 26 17:57:07 +0000 2022,-83.7372624,40.3642965,"Stop staring at the clock every day. It's time for a new career. Follow us to view jobs with titles like ""LEAD SALE‚Ä¶ https://t.co/EvZUI54vg1"
1519012713225080833,tmj_CHI_skltrd,Tue Apr 26 17:57:07 +0000 2022,-87.6297982,41.8781136,"See our latest #Chicago, IL job and click to apply: R0015: Handler (Non-DOT) - Warehouse - https://t.co/jvtgYAW5w0 #SkilledTrade"
1519012712549859333,coreyjmuirhead,Tue Apr 26 17:57:07 +0000 2022,-73.957175,40.64611,At the Mayors first 100 days event! https://t.co/NQRXmRnGhM
1519012713749491712,H0LLYW00D_Jones,Tue Apr 26 17:57:07 +0000 2022,-79.42086499999999,38.003375500000004,@livmoods Riding the under! üí™üèæü§ûüèæ
1519012713745199105,tmj_tuc_constru,Tue Apr 26 17:57:07 +0000 2022,-110.926479,32.2217429,"If you're looking for work in #Tucson, AZ, check out this job: https://t.co/rNJX1Fam8U #Construction"
1519012714349273089,Vannah_2x,Tue Apr 26 17:57:07 +0000 2022,-81.705467,41.495939500000006,"I took this nap , now my ass ain‚Äôt got energy to go hoop üôÑü§¶üèΩ‚Äç‚ôÄÔ∏è. That‚Äôs so annoying"
1519012714684764160,patmcmillan52,Tue Apr 26 17:57:07 +0000 2022,-80.18183450000001,38.9201425,@RevSarahLocke F this
1519012714663849988,ThomasB61446446,Tue Apr 26 17:57:07 +0000 2022,-83.1480435,42.579003,@Franklin_Graham Amen brother Graham
1519012715141890048,tmj_LAH_transp,Tue Apr 26 17:57:07 +0000 2022,-93.7321228,32.5159852,"Interested in a job in #BossierCity, LA? This could be a great fit. Click the link in our bio to apply: Parts Deliv‚Ä¶ https://t.co/3GLUounwk0"
1519012714508607488,JEgglestonWFXG,Tue Apr 26 17:57:07 +0000 2022,-82.063185,33.4407175,HAPPENING NOW: Commissioners are discussing the recent rise in crime in Augusta-Richmond County. https://t.co/glneVAIq7s
1519012715255058433,hftjobs,Tue Apr 26 17:57:07 +0000 2022,-95.9064402,36.131424,"At Harbor Freight Tools, we believe in supporting our associates in their goal of building a rewarding and long-las‚Ä¶ https://t.co/u6xGEQ2nZo"
1519012716203200518,dominicyoung70,Tue Apr 26 17:57:08 +0000 2022,-89.2665075,39.7393005,@RyanAFournier Only 19% want Biden. Only 7% want Harris. He got more votes than any President in history? Really??‚Ä¶ https://t.co/gnnRWmGJ6x
1519012716530343939,keezygoated,Tue Apr 26 17:57:08 +0000 2022,-91.0907995,30.4591,Cause we don‚Äôt care
1519012716761001990,OmfgVia,Tue Apr 26 17:57:08 +0000 2022,-79.2725695,43.629311,"@AndeanEwok Tbh I have no interest in either of those two..I support the Raps, Jays and Leafs but besides the baske‚Ä¶ https://t.co/NmYQFeP6c9"
1519012717096407040,Francis38490069,Tue Apr 26 17:57:08 +0000 2022,-118.068689,33.8669655,"@buttahslayslay Good morning to you too and have a wonderful Tuesday , take care,!!"
1519012718228885505,betoklungil,Tue Apr 26 17:57:08 +0000 2022,-118.48042000000001,34.022688,praying that I pass my 2 exams ü•π
1519012718371430401,highcountryred,Tue Apr 26 17:57:08 +0000 2022,-106.0360575,39.505657,Why are wedding invitations expensive? It‚Äôs paper.
1519012719235457024,LovePERFECTION,Tue Apr 26 17:57:08 +0000 2022,-118.4119065,34.0207895,I really want to work with someone that can help me carry the weight and helps me take things to the next level. I‚Äô‚Ä¶ https://t.co/JeRvjiVfhV
1519012719881379840,tayzVAL,Tue Apr 26 17:57:08 +0000 2022,-121.3007305,38.7631605,@zombieangel_l Thx g
1519012719923445761,Goddamnqam,Tue Apr 26 17:57:08 +0000 2022,-83.1738665,32.6782075,"Lil miss Iman, you fine as hell go away"
1519012720384917504,mignaci0,Tue Apr 26 17:57:09 +0000 2022,-74.46648300000001,40.551769500000006,@BLCity5 I‚Äôm sure you could be more optimistic lol
1519012720376492039,KeithH11233,Tue Apr 26 17:57:09 +0000 2022,-73.9487755,40.655138,@therecount @RandPaul ......and Arizona used to be part of Mexico
1519012720745582594,VanHoAdam,Tue Apr 26 17:57:09 +0000 2022,-81.4333985,41.1379965,Can we all just admit that @RandPaul is one of Putin‚Äôs puppets?
1519012721571811332,l3LACKENIX,Tue Apr 26 17:57:09 +0000 2022,-97.2757585,33.0189255,@sofscudi Lol interesting
1519012722624630784,PinellasCo911,Tue Apr 26 17:57:09 +0000 2022,-82.74904315,27.89269036,Alert: FIRE ALARM @ 13249 THOROUGHBRED LOOP Tac: B Sent: E39 38FD
1519012725581664258,Lito_Holmes,Tue Apr 26 17:57:10 +0000 2022,-84.26306149999999,33.8013615,I give you a inch n to go a mile for me
1519012726332444673,DJCheetahlish,Tue Apr 26 17:57:10 +0000 2022,-98.69004,29.57729,CheetahlishYour Fiercely Unique Fashion &amp; Accessories Destination 14436 Old Bandera Rd at the Circle in Old Town‚Ä¶ https://t.co/0x4HC1BoaR
1519012727192231936,DJJoeSauce,Tue Apr 26 17:57:10 +0000 2022,-71.0887125,42.3136695,"KapnSpaulding found #bitcoin in a Blue vault at this location! Join me playing #coinhuntworld, It's awesome!‚Ä¶ https://t.co/SpBfemYFpZ"
1519012728236613633,KIR_bigg50,Tue Apr 26 17:57:10 +0000 2022,-95.44648649999999,29.838495,I LOVE MY SIDE FIGHTING BACK!!üî•üî•üî•üî•üî•üî•üî•üî•üî•üî•üî•üî•üî•üî•üî•üî•üî•üî•üî•üî•üî•üî•üî•üî•#ThisisTheWay
1519012728077135872,AndreMiguelWas1,Tue Apr 26 17:57:10 +0000 2022,-111.931711,34.1682535,Brantley Gilbert - Man Of Steel (Lyric Video) https://t.co/uC8JrI7ZW1 via @YouTubeMusic https://t.co/ZZz1RlbMqh
1519012728647606273,teezy410,Tue Apr 26 17:57:11 +0000 2022,-80.18183450000001,38.9201425,@goodness_glows @GeorgeWLDD @RizoStonks @Marcskeetmarc Let these mfs know!!! https://t.co/FPP6Pcn4nv
1519012728920326147,StormyClaussen,Tue Apr 26 17:57:11 +0000 2022,-86.4355085,36.965671,@MiaMooreSwing @libsoftiktok @TaylorLorenz @washingtonpost The article calling out @libsoftiktok out and sharing pe‚Ä¶ https://t.co/6lIrFbFtXU
1519012731172622340,thevividjb,Tue Apr 26 17:57:11 +0000 2022,-94.808085,38.886623,"@zekryos No worries, BunBun. Awaiting delivery of my snack now, and am on 22oz bottle #3 of the day."
1519012731185115136,Bonniekra56,Tue Apr 26 17:57:11 +0000 2022,-120.841443,37.060965,@Kathygogo1 @2017Simp How did you get a apt. By yourself at 15?
1519012731537354752,JohnA_USMCvet,Tue Apr 26 17:57:11 +0000 2022,-120.47181,37.316222499999995,Democracy ONLY works if we ALL participate.
1519012731638145029,CallonTyroneATL,Tue Apr 26 17:57:11 +0000 2022,-84.266174,30.476215500000002,This is generational
1519012730774204418,Jon_Fishman8,Tue Apr 26 17:57:11 +0000 2022,-80.182413,26.326454,Today in 6th grade English @NBPSEagles students organized their writing with a tree map. @ThinkingMaps Students wro‚Ä¶ https://t.co/n9zgeqg9cL
1519012732485439489,ozkr_scar,Tue Apr 26 17:57:11 +0000 2022,-116.97632,32.5053514,"The best way to enjoy nature! #naturist #beautifulview #earthdayeveryday @ Cerro El Coronel, Playas De Rosarito https://t.co/eXG8mqPTIx"
1519012733978566656,tiyoniamil,Tue Apr 26 17:57:12 +0000 2022,-84.433106,33.7671945,ion know what ima do when my kids graduateü•∫ü•∫ü•∫
1519012734028816384,MaileZ,Tue Apr 26 17:57:12 +0000 2022,-122.04254449999999,47.542814,See you there @LOTKraken
1519012734179840001,MRJPHRESH,Tue Apr 26 17:57:12 +0000 2022,-118.4119065,34.0207895,I thought laughing at my post meant you wanted me. https://t.co/w0hdOOwS2m
1519012735903744000,its_zeye,Tue Apr 26 17:57:12 +0000 2022,-79.619824,44.293550499999995,Y‚Äôall ppl gotta heal
1519012736268709889,mr_extRODinary,Tue Apr 26 17:57:12 +0000 2022,-89.8494555,34.9563885,I just want to know what he said to himself after he jumped into the deep end. I can‚Äôt stop laughing
1519012737057181697,_leonorflowers,Tue Apr 26 17:57:13 +0000 2022,-97.754724,30.323345500000002,May starts next week? That was fast
1519012737027878912,HeadHonchoe,Tue Apr 26 17:57:13 +0000 2022,-84.541562,33.588263,"Every hot girl from that era showed up for this video . One thing about @LilKim and @MissyElliott ,they‚Äôre gonna br‚Ä¶ https://t.co/E25Y4bwTla"
1519012737195597824,cduvall30,Tue Apr 26 17:57:13 +0000 2022,-96.7311425,43.5410145,@Gabe97958165 @mindi_1111 @suky01 @Cocolh44 I even pictured a cute little voice when trying to read it ü§£
1519012738051227649,DomarPierson,Tue Apr 26 17:57:13 +0000 2022,-90.19131300000001,33.514965000000004,The government spent nearly $7 trillion last year and it didn‚Äôt solve shit!!!
1519012740089749505,moe_jaymoe45,Tue Apr 26 17:57:13 +0000 2022,-79.861034,35.1704985,There‚Äôs something about a chocolate man that makes my dick jump
1519012740647383040,kyleve,Tue Apr 26 17:57:13 +0000 2022,-122.4359785,37.7706565,Awful. The road isn‚Äôt closed to vehicles if half of it has loud cars on it! Ugh why are all our supervisors the wor‚Ä¶ https://t.co/1vlRUW12dZ
1519012742392389632,thorku,Tue Apr 26 17:57:14 +0000 2022,-93.249777,45.049967,@andybehrens Thank you Andy!
1519012744019775488,TYsAdventures,Tue Apr 26 17:57:14 +0000 2022,-73.958542,40.689506,"I'm at Lafayette Gardens Resident Association, Inc - @lghereandnow in Brooklyn, NY https://t.co/gzo8mN5gQf"
1519012744674041858,ThoughtsFromDev,Tue Apr 26 17:57:14 +0000 2022,-84.266174,30.476215500000002,This must be how people from Harlem felt when the Harlem shake went viral
1519012745420709888,ChelleHeath,Tue Apr 26 17:57:15 +0000 2022,-97.754724,30.323345500000002,@BriennaC7 @thatangeIguy The last thing he cares about is people‚Äôs money ffs. Anyone that says he used them for money is a damn liar.
1519012746104299523,Yiannithemvp,Tue Apr 26 17:57:15 +0000 2022,-88.200334,40.115085,Oh no
1519012747152957441,TeslaPravduh,Tue Apr 26 17:57:15 +0000 2022,-119.96423999999999,39.221667,DM please unban Twitter in Russiahttps://t.co/DPS2xWJ84L
1519012746674724864,albamouredelavi,Tue Apr 26 17:57:15 +0000 2022,-80.36688050000001,25.6368545,Cry baby ‚ù§Ô∏è https://t.co/SSB9QwD8RY
1519012747345866752,hipmamajenn,Tue Apr 26 17:57:15 +0000 2022,-97.32841305,32.7483162,Excited day at #txla22 I just had the honor of accepting the Libraries Change Communities Award for the‚Ä¶ https://t.co/qz9AiqMAvF
1519012747530309632,cripauthor,Tue Apr 26 17:57:15 +0000 2022,-118.4119065,34.0207895,ùó†ùó∂ùóπùó∏ 74 ùóßùó©  ùó•ùó≤ùóÆùóπ ùóîùòÄ ùóßùóµùó≤ùòÜ ùóñùóºùó∫ùó≤ ùó°ùóº ùó¶ùóµùóÆùó±ùó≤ ùó•ùóºùóºùó∫ ùó°ùóº ùó°ùóº ùóùùòÇùó∫ùóΩùó≤ùóø ùó°ùóº ùó©ùóπùóÆùó±ùóßùó© ü•õ üì∫#ùóßùòÇùóΩùóÆùó∞ùó¢ùó≥ùó¶ùòÅùóøùó≤ùó≤ùòÅùóôùó∂ùó∞ùòÅùó∂ùóºùóª#ùóôùóÆùó∫ùóºùòÇùòÄùóîùòÇùòÅùóµùóºùóø‚Ä¶ https://t.co/9ffSnCJ4Je
1519012749522743296,x_HoneyyBrown,Tue Apr 26 17:57:16 +0000 2022,-80.8467855,35.209058999999996,- Mario‚Äôs voice is mesmerizing in this song.
1519012749442838529,lackey_ariana,Tue Apr 26 17:57:16 +0000 2022,-122.2800145,47.469552,Let's fk
1519012749459697664,DayToRemember,Tue Apr 26 17:57:16 +0000 2022,-95.3870088,29.7215991,Just posted a photo @ McGovern Centennial Gardens https://t.co/Y6bhDtrgfH
1519012750919307265,hemprissa,Tue Apr 26 17:57:16 +0000 2022,-106.632718,35.1170025,Can‚Äôt believe I‚Äôm going though this right now
1519012751670132737,CombatJourno,Tue Apr 26 17:57:16 +0000 2022,-77.301913,38.8526005,@iMasoudKazemi Listen to the opening titles song of ‚ÄúNarcos‚Äù series.
1519012751741317120,erincorrie,Tue Apr 26 17:57:16 +0000 2022,-121.83373,39.747037,If @elonmusk starts charging money to use this app will you stay and pay? #TwitterTakeover
1519012753196961796,ConnorJClark,Tue Apr 26 17:57:16 +0000 2022,-95.44648649999999,29.838495,Me staring at the brisket at Truth‚Äôs. https://t.co/pg5ux9DUXF
1519012753566056448,auntiepam1302,Tue Apr 26 17:57:16 +0000 2022,-84.4051185,39.040875,@ballingerfamily Why ask if you‚Äôre not going to reply to anyone that replies back to you
1519012753817489408,evoterra,Tue Apr 26 17:57:17 +0000 2022,-112.12467649999999,33.5528625,@_Dan_Delgado I dropped by 5. But I don‚Äôt tend to attract (and I‚Äôve certainly never cultivated) followers on the ex‚Ä¶ https://t.co/VizyZd6d2M
1519012754065182721,JuliusManogura,Tue Apr 26 17:57:17 +0000 2022,-75.8001415,45.248791,@Jan______log I love youuu sleep well baby üôèüèª‚ù§Ô∏è
1519012753842782210,Mruglyjr1,Tue Apr 26 17:57:17 +0000 2022,-73.9487755,40.655138,Sheeesh  https://t.co/7T3qMQimPl
1519012754929115139,jennPLUSn,Tue Apr 26 17:57:17 +0000 2022,-77.60468399999999,41.1179365,@abby_blxck honestly same it makes me so happy that there is actual accessible queer representation
1519012754719313922,tmj_msp_constru,Tue Apr 26 17:57:17 +0000 2022,-93.2639563,44.9776996,"Nervous to apply for a job like ""Superintendent"" at LMC? Apply even if you're not a 100% match. You might be undere‚Ä¶ https://t.co/akvaQqH3p2"
1519012755314864135,Mzjo220,Tue Apr 26 17:57:17 +0000 2022,-119.03434899999999,34.225327500000006,Be Happy and Smile üòÜ
1519012755809873920,ctrewes,Tue Apr 26 17:57:17 +0000 2022,-73.05374499999999,41.224028,@ctnewsjunkie Thought they were concerned about patients?
1519012756426575877,msnellen82,Tue Apr 26 17:57:17 +0000 2022,-77.5888935,37.599557,Who‚Äôs ready for spaces with @Timmyham / @ChilledSLOTHnft with our @FrenlyFlyz Frens?!
1519012757873561600,skyline_sparks,Tue Apr 26 17:57:18 +0000 2022,-78.903355,38.0709305,@MeidasTouch How many third chances does this guy get?
1519012758771191809,dominicyoung70,Tue Apr 26 17:57:18 +0000 2022,-89.2665075,39.7393005,@TheLeoTerrell Only 19% want Biden. Only 7% want Harris. He got more votes than any President in history? Really??‚Ä¶ https://t.co/FBQKl02mpv
1519012759614148610,SlayveChild,Tue Apr 26 17:57:18 +0000 2022,-80.1936,25.7751,"Everybody got shyt to say but never talk about the üí©üí©üí©üí© in they way ! üêäBABYüñïüèøFuck ya @thereal_wickgod  üêê @ Miami,‚Ä¶ https://t.co/2K2pTGgrCp"
1519012760780263429,cincygreghoodin,Tue Apr 26 17:57:18 +0000 2022,-84.335925,39.0661695,@tony_pike15 my condolences to you and your entire family Tony #BearcatFamily
1519012761799438336,LMStone68,Tue Apr 26 17:57:18 +0000 2022,-71.0543155,42.4574135,"@SparkyBru I learned a few things, it really is about who you know, cops and judges aren‚Äôt always ethical, always h‚Ä¶ https://t.co/wtJ2mOCTg3"
1519012763644821509,GirlThatsRj,Tue Apr 26 17:57:19 +0000 2022,-104.92209349999999,39.713563,@fourrupt @JuicegawdinPriv Hell nahhhhhh I‚Äôd rather pay $12 for fake polo socks than $30
1519012763762315264,gtconway3d,Tue Apr 26 17:57:19 +0000 2022,-77.0143985,38.898602999999994,yeah but at least there we should get a refund
1519012763833671681,HAS5AM,Tue Apr 26 17:57:19 +0000 2022,-83.804475,27.698681999999998,@Ionesometowns Liked songs set to shuffle
1519012764408291329,WxFanaticCC,Tue Apr 26 17:57:19 +0000 2022,-100.0768885,31.1688935,@WXgage @Osterhout15 I‚Äôm sorry but you haven‚Äôt activated your Twitter tips so no can do https://t.co/pSEVgla6ED
1519012765800706049,MikeGrose,Tue Apr 26 17:57:19 +0000 2022,-112.12467649999999,33.5528625,ü•é @LoBo_Athletics alums sweep Softball Player of the Week honors in the RMAC.
1519012766312448007,Tigahs2k19,Tue Apr 26 17:57:20 +0000 2022,-85.9785995,35.8305215,@samyliam19 Have A Fantastic Afternoon Samy üíúüíõüíúüíõüå∑üå∑üå∑ https://t.co/khrI5kjfFK
1519012766568357892,SplodgeNik,Tue Apr 26 17:57:20 +0000 2022,-79.861034,35.1704985,"@elvngrl There's nothing worse :DBut I get what you mean, then I remember a sale is a sale, and I'm paying two ot‚Ä¶ https://t.co/0Ng1uyPUpl"
1519012767264563203,DaRealELOHES,Tue Apr 26 17:57:20 +0000 2022,-77.9121,34.2232,"Just posted a photo @ Wilmington, North Carolina https://t.co/lRqgFBXERi"
1519012768275472384,WeatherByBrian,Tue Apr 26 17:57:20 +0000 2022,-110.0447835,46.6798,"Montana, USA: It's dry as strained pasta. 25% humid right now."
1519012768602632199,miltimore79,Tue Apr 26 17:57:20 +0000 2022,-93.6039505,44.81615,@michaelmalice I got this vibe from the trailer.
1519012767944130560,nancyr0406,Tue Apr 26 17:57:20 +0000 2022,-87.732013,41.8335845,@EDC_LasVegas this person is a scammer!! Don‚Äôt trust them!!!!! He tried selling me a shuttle pass‚Ä¶ unfortunately I‚Ä¶ https://t.co/tvqWbOFVrV
1519012767914680320,oheylolo,Tue Apr 26 17:57:20 +0000 2022,-118.4119065,34.0207895,One of my goals just manifested today! Blessings to the Most High üôåüèæ ü•π I love it here !!! Giving Thanks and P‚Ä¶ https://t.co/9fqiH2Ho6r
1519012769894305792,mmcodd,Tue Apr 26 17:57:20 +0000 2022,-111.8808735,33.282450499999996,The checks arent blue. They are white.
1519012769512980480,BroGod4Life,Tue Apr 26 17:57:20 +0000 2022,-89.968441,36.789103999999995,I am so sorry Steffy your husband Finn is gone I feel for you we all do üò≠üò≠üò≠üò≠üò≠üò≠üò≠üò≠ #BoldandBeautiful https://t.co/aY2T5TjGsz
1519012770498363404,annabelrocha93,Tue Apr 26 17:57:21 +0000 2022,-87.732013,41.8335845,@ABeanTweeting Omg!! This tweet was recommended to me ‚Äúbased on my likes‚Äù and I actually took your media classes at‚Ä¶ https://t.co/mbSwQQgsHj
1519012770909458432,__Murphy88,Tue Apr 26 17:57:21 +0000 2022,-79.42086499999999,38.003375500000004,This is why you need to be following @NolaJeffy
1519012771303596033,TylerChess,Tue Apr 26 17:57:21 +0000 2022,-115.135165,36.0609645,@TravelTeslaDad Was there last night
1519012770636832769,courtneyjwright,Tue Apr 26 17:57:21 +0000 2022,-96.717484,32.918678,Mr. G @GBob51815940 is crushing STAAR  Boot Camp @AudeliaCreek His 6th graders are so motivated! #ACEmazing‚Ä¶ https://t.co/c1IsfHYfQG
1519012771966373893,Eye_Am_Lovee,Tue Apr 26 17:57:21 +0000 2022,-85.1455835,41.222105,Counting our blessings üôèüèΩ‚ù§Ô∏è grateful to be home and safe! Even if we did get back at 5amü•¥and were only a handful of‚Ä¶ https://t.co/WX1myLlI60
1519012772738220033,BarbieK_92,Tue Apr 26 17:57:21 +0000 2022,-73.8311875,40.6708795,I keep getting spam followers and I keep blocking them. I think I‚Äôm going to go private a little bit.
1519012772692041738,Leftyblueeyes1,Tue Apr 26 17:57:21 +0000 2022,-82.431309,35.603866,@RuthownedbyGray @sylviasydny Me too! ü•∞ü•∞ü•∞
1519012773102903297,marybraggxo,Tue Apr 26 17:57:21 +0000 2022,-118.4119065,34.0207895,"If you had an NFT project, what would your main utility be?"
1519012773228916736,emehlee,Tue Apr 26 17:57:21 +0000 2022,-98.5406515,29.417501,"@AmandaMAtwell Oh, the accuracy‚Ä¶ only I know it‚Äôs not just SA‚Ä¶ and hi!"
1519012773572714496,tayzVAL,Tue Apr 26 17:57:21 +0000 2022,-121.3007305,38.7631605,@Volterohh Ill teach
1519012774113853440,Gene9thomas,Tue Apr 26 17:57:21 +0000 2022,-82.92943650000001,34.347203,"You read minds? Of coarse it‚Äôs just an opinion. You‚Äôre entitled to it, but you label it as such."
1519012775451897857,rookie1937,Tue Apr 26 17:57:22 +0000 2022,-85.9785995,35.8305215,the devil has tremdeous power over     some in powerüë∫
1519012774701146117,Warllayne,Tue Apr 26 17:57:22 +0000 2022,-71.4356815,42.305097,Cant do SHIT in this officeüò≠ https://t.co/CV14YDiV8g
1519012777523769344,PABakery1713,Tue Apr 26 17:57:22 +0000 2022,-76.91359,40.23977,Just posted a photo @ The Pennsylvania Bakery https://t.co/ggDGkQ89Nc
1519012777641324547,FLsportsgirl_C,Tue Apr 26 17:57:22 +0000 2022,-80.1386455,26.251895,"@ColorMeGolden__ You think??? It was torture for me today, I need to start conditioning myself to be okay with it haha"
1519012777913995266,mercurialblonde,Tue Apr 26 17:57:22 +0000 2022,-95.770195,36.0393055,@aijukaT97 @Celoti2381 @UtdOptimist @EvkProductions We probably should draw the line though. These wages kill coach‚Ä¶ https://t.co/u1CQbv4lCb
1519012779096694787,AnnmarieJeremi1,Tue Apr 26 17:57:23 +0000 2022,-79.7595915,43.724971,Guys that know they are ugly deal with any and everything!
1519012778488385536,StartSign2,Tue Apr 26 17:57:22 +0000 2022,-118.1567105,33.809171500000005,‚òÄÔ∏è G O O D  M O R N I N G ‚òÄÔ∏è           üíú M E T A S T R E E T S üíõ                      #NFTSPACE https://t.co/NpQQoetNTf
1519012779637846017,MatthewTwihard,Tue Apr 26 17:57:23 +0000 2022,-90.253346,30.0093515,@DrStrangeUpdate I saw this #MultiverseOfMadness trailer on TV last night and I love it. #AmericaChavez is going‚Ä¶ https://t.co/ZHehZ9gojC
1519012780438872071,el71254,Tue Apr 26 17:57:23 +0000 2022,-76.510792,38.969966,"@MarshaBlackburn Marsha, you have always exercised your right to free speech on this platform. You just don't have‚Ä¶ https://t.co/gB3UuQfliP"
1519012780216627208,mischasmom,Tue Apr 26 17:57:23 +0000 2022,-93.278974,44.87629,Found these at Trader Joe‚Äôs today and O M G they are DIVINE üíØ https://t.co/ehmWr8E9ZP
1519012781244116993,wwwaldotcom,Tue Apr 26 17:57:23 +0000 2022,-111.91702599999999,40.765805,The Killers - My Own Soul‚Äôs Warning (Michael Hili Video) https://t.co/pNVdLlr1kF via @YouTube
1519012781814521856,Berea_Athletics,Tue Apr 26 17:57:23 +0000 2022,-84.29043687,37.57259214,#GameDay Come pack the stands tonight as the Baseball Team hosts Alice Lloyd College. #OneBlood @ Berea College https://t.co/GLGssU3d3I
1519012782796152832,MasonD3,Tue Apr 26 17:57:23 +0000 2022,-81.9968975,28.922832,Hell no y'all are ESG Climate ZOMBIES!
1519012783064506370,gpejlc123,Tue Apr 26 17:57:24 +0000 2022,-95.44648649999999,29.838495,Throw Abbott out of office Vote BETO for better Democratic Government.
1519012783790067712,GirlDadGaming,Tue Apr 26 17:57:24 +0000 2022,-82.69405950000001,28.013468500000002,"@HiRickyLive @nikgeneburn It is... I really like that tho, we should try to get going from the beginning of a wipe.‚Ä¶ https://t.co/kyC8pVAM46"
1519012783727300608,DaninCarteret,Tue Apr 26 17:57:24 +0000 2022,-74.473067,40.4457045,"@whitemi5 What part of ""move up the ladder in the maintenance craft"" did u not understand, dopetroll? My next game‚Ä¶ https://t.co/R2o6ABEyNK"
1519012784444375040,TravisMayfield,Tue Apr 26 17:57:24 +0000 2022,-122.3306025,47.614817,"Anti-Semitic Incidents in U.S. Jump to New High, Report Sayshttps://t.co/CnV9Nvj3Vj https://t.co/CZb9U4oBCr"
1519012785413406720,KyleHaloAC,Tue Apr 26 17:57:24 +0000 2022,-97.1691565,31.547449,Tuesday Tune-up workout at Halo https://t.co/C1xNb2ahX7
1519012786436726785,Chris61097252,Tue Apr 26 17:57:24 +0000 2022,-80.926628,33.6311395,@MarkHamill People are leaving twitter because Elon Musk bought it. I say who gives a damn if he bought it.
1519012786382286848,donniew031971,Tue Apr 26 17:57:24 +0000 2022,-96.835249,33.1501395,So pretenders of miranda is that why y‚Äôall said go stay in lindale for thsnksgiving so you could say it was me that‚Ä¶ https://t.co/6qqesIWgjs
1519012786935934978,RossKillz,Tue Apr 26 17:57:24 +0000 2022,-73.8494415,40.8503475,"matte looks fire on a whip but dirt sticks to it too much, i need a wash like every week smh"
1519012787355361282,barbiik,Tue Apr 26 17:57:25 +0000 2022,-80.13296249999999,25.816965500000002,"Bye bye twitter...dreaming about a world without racism, mysogonism and bigotry #lasttweet #farewelltwitter https://t.co/f2lP1H3dT7"
1519012789158883330,DanielGranges,Tue Apr 26 17:57:25 +0000 2022,-72.757385,41.500753,"@_AndrewCallahan It‚Äôs a lot of trading back , that‚Äôs about the just of my drafts. I look for the highest need posit‚Ä¶ https://t.co/AqyKhf0Rfj"
1519012789376872448,annabrice,Tue Apr 26 17:57:25 +0000 2022,-111.931711,34.1682535,@MaryL1973 @SNYtv I thought it was just me because all of a sudden Nimmo was rounding the bases.
1519012788332646400,6OneDeuceceo,Tue Apr 26 17:57:25 +0000 2022,-93.1056485,44.9415155,"‚ÄúWhen You‚Äôre Thankful For What You Have, You Are Always Rewarded With More.‚Äù üî•üî•üèÑüèø‚Äç‚ôÇÔ∏èüî•üî• #music #art #artist‚Ä¶ https://t.co/0TcrIwn4vy"
1519012789439844354,Greenmonkeyshop,Tue Apr 26 17:57:25 +0000 2022,-78.655873,35.782912,Just posted a photo @ The Green Monkey https://t.co/AUvxzxjDKE
1519012790631116809,jmsully09,Tue Apr 26 17:57:25 +0000 2022,-71.1654995,42.649235,@FaceTheNation @PaulaEbben @margbrennan You Clowns have Ruined our country.
1519012790693994497,LazyChipsYT,Tue Apr 26 17:57:25 +0000 2022,-89.92202900000001,35.1335205,Watch itjustlzy with me on Twitch! https://t.co/05NrJ9UP1S
1519012791390195713,AztecWarrior83,Tue Apr 26 17:57:26 +0000 2022,-92.604582,44.865365,@CEOofFamFresh This is when you start cashing in
1519012791746580480,AliciaHollinger,Tue Apr 26 17:57:26 +0000 2022,-118.4119065,34.0207895,@Mary88Rz @MeidasTouch @Bwebb12 @RandPaul @FoxNews EVERYTHING.
1519012793336451074,Anthony19174645,Tue Apr 26 17:57:26 +0000 2022,-83.1738665,32.6782075,@lilsquirt122 Ma‚Äôam yes ma‚Äôam I‚Äôm kidding lol ü§£üòÇ
1519012793437110277,CodeNameJefe,Tue Apr 26 17:57:26 +0000 2022,-77.1289505,38.8468865,@Coolwitha_K They need one
1519012793541931008,cypress_soul,Tue Apr 26 17:57:26 +0000 2022,-75.117998,40.0048655,I hate that ppl are making me say this but...why the energy ppl give Sh*wn M*nd*s not given towards Hairy..? Like p‚Ä¶ https://t.co/lvdJE4WtAa
1519012795139862529,rime_salmi,Tue Apr 26 17:57:26 +0000 2022,-118.48042000000001,34.022688,@TylerFoust13 @JRArtSpace_NFT ü§£ love this. shameless plugging of one‚Äôs own art is it üî•üî•üî•
1519012795362291719,MrGreen96385653,Tue Apr 26 17:57:26 +0000 2022,-96.053431,41.275721000000004,@RyanAFournier Then based on your looks. I openly question what side of the fence you rather sit on. How about that for free speech.
1519012795664285698,MisterPatrick1,Tue Apr 26 17:57:27 +0000 2022,-73.9685415,40.780709,@_SwagHercules @coltonnmarshall It‚Äôs all about the mindset.  Now I need to find a gym with old people so I can get‚Ä¶ https://t.co/04kTDfcS5o
1519012797207568384,Grxzzly93,Tue Apr 26 17:57:27 +0000 2022,-118.1567105,33.809171500000005,Missed you Friday and now here‚Äôs my second chance üò≠üò≠üò≠üò≠
1519012796318502912,ProctorAnderson,Tue Apr 26 17:57:27 +0000 2022,-87.732013,41.8335845,bean/cheese/jalapeno today https://t.co/0Q8lEzkIjJ
1519012797618659328,matajson,Tue Apr 26 17:57:27 +0000 2022,-84.53981250000001,39.137038000000004,@Robertholar Hello. I would send you a DM now.
1519012797467688961,tmj_VAF_sales,Tue Apr 26 17:57:27 +0000 2022,-77.4310992,38.8942786,"Interested in a job in Chantilly, VA? This could be a great fit. Click the link in our bio to apply: Proposal Manag‚Ä¶ https://t.co/mSz7Vwnry2"
1519012797450924033,mcreyes213,Tue Apr 26 17:57:27 +0000 2022,-118.1567105,33.809171500000005,School system should be right at the top of the list.
1519012798323384321,chrrrysoda,Tue Apr 26 17:57:27 +0000 2022,-74.066663,40.7180015,@dumbfemm who‚Äôs that man #lol
1519012798889611265,Taegroove,Tue Apr 26 17:57:27 +0000 2022,-96.39715,42.473947499999994,@TheMetaHustlers @0xMAYC ‚úÖ hope I win this time
1519012800126873601,julianneallen80,Tue Apr 26 17:57:28 +0000 2022,-121.469664,38.561722,"Yeah, Texas used to be part of Mexico...your point Senator?"
1519012800718426112,Jerry_Quoi,Tue Apr 26 17:57:28 +0000 2022,-75.117998,40.0048655,Just quit basketball bro
1519012802521882625,ber_v8,Tue Apr 26 17:57:28 +0000 2022,-85.7682405,37.822244,"God is great, Money's the rule all evil üôè üôå üëè"
1519012803054641153,too2on,Tue Apr 26 17:57:28 +0000 2022,-74.046402,40.885965999999996,Shut the fuck up
1519012804329619456,DerekTsuboi,Tue Apr 26 17:57:29 +0000 2022,-81.0442,34.0006,"Put in them requests now guys. Cinco is almost upon us. üçª @ Columbia, South Carolina https://t.co/pA4geluAPI"
1519012804614840321,ashelxyz,Tue Apr 26 17:57:29 +0000 2022,-97.28591349999999,32.7799665,Should i go spend it outdoors now or later ü§î
1519012802727489537,JennieSTaer,Tue Apr 26 17:57:28 +0000 2022,-77.0143985,38.898602999999994,NEW: I asked Texas AG @KenPaxtonTX for his reaction on the terrible news that the missing soldier‚Äôs body was recove‚Ä¶ https://t.co/DPkyLRYRLU
1519012805550125056,peyton_hillman,Tue Apr 26 17:57:29 +0000 2022,-116.8925785,47.807355,Have to work with the best to be the best! üí™üèª #1percent
1519012808515461120,cynthia_ber26,Tue Apr 26 17:57:30 +0000 2022,-118.4119065,34.0207895,Starting to like my face without makeup‚Ä¶ üíï
1519012808628871169,CarolRecord,Tue Apr 26 17:57:30 +0000 2022,-85.812235,33.678802000000005,@SimplyFun Play lights up everyone's brain. üòä
1519012809195114501,d0rkph0enix,Tue Apr 26 17:57:30 +0000 2022,-94.3782315,38.916093000000004,"@Pro_Geek_Dad @AvengerZS I know, but I couldn‚Äôt pass up a chance to affectionately mock Zach‚Äôs wookie-like body hair"
1519012809467604992,TheOfficerTatum,Tue Apr 26 17:57:30 +0000 2022,-112.12467649999999,33.5528625,Twitter just feels different!
1519012809903902720,RWNJ_,Tue Apr 26 17:57:30 +0000 2022,-105.0639425,40.564190499999995,@MatterSeeker55 Most of her tweets are like that.ü§£ü§£ü§£
1519012810512031744,rockyknowsbest,Tue Apr 26 17:57:30 +0000 2022,-98.321263,29.590815,@UTmark65 Not a fudge fan. Too sweet for me. The candied pecans are my speed.
1519012811241922561,dom_lamont,Tue Apr 26 17:57:30 +0000 2022,-82.985772,39.9946835,Y‚Äôall ‚Äî‚Äî- I think I found my husband lol no lie. Ima save this tweet and report backüòÇ
1519012810956623873,RutmanBen,Tue Apr 26 17:57:30 +0000 2022,-79.2725695,43.629311,@mcollisLLB @ConsumerSOS Don't you worry it's only until they find out Toronto is racist. Then they will have to ch‚Ä¶ https://t.co/Q9nR6VHq8W
1519012811413807108,RickPress2,Tue Apr 26 17:57:30 +0000 2022,-83.7299715,42.270839499999994,@veefriends Cannot wait!
1519012810734424066,WindowJourneys,Tue Apr 26 17:57:30 +0000 2022,-157.799589,21.3199435,"Alexa, take me to Hawaii üó∫Non-stop flights from Newark, NJ and hotel transfersTravel Insurance included**Price‚Ä¶ https://t.co/8X7bs5c2Mz"
1519012813548650496,SourSportsLivie,Tue Apr 26 17:57:31 +0000 2022,-121.8737305,37.331159,Bruh I wanted a single dorm at my college's on-campus dorm but no I HAVE TO CHOOSE A TRIPLE BECAUSE THEY'RE THE ONL‚Ä¶ https://t.co/HrBRs8bzSO
1519012814274371586,EshiaGolden,Tue Apr 26 17:57:31 +0000 2022,-84.35244449999999,33.943456999999995,Ppl don‚Äôt get this..
1519012814786121729,nancyoneil1020,Tue Apr 26 17:57:31 +0000 2022,-71.4356815,42.305097,"Is it me, or is it really bizarre to have literally hours of audio recordings of fighting with your partner? #JohnnyDeppVsAmberHeard"
1519012815092207616,WTFPeople15,Tue Apr 26 17:57:31 +0000 2022,-75.8001415,45.248791,"@StrikeFord Don‚Äôt let the bastards grind you down.Ford and his cronies are running scared and as usual, don‚Äôt quit‚Ä¶ https://t.co/bbWl5oI3ih"
1519012815327174658,Sheglar_GD,Tue Apr 26 17:57:31 +0000 2022,-73.8311875,40.6708795,Nope prostitution been around for years
1519012815864053760,javierthethembo,Tue Apr 26 17:57:31 +0000 2022,-96.961483,32.863917,It‚Äôs giving corporate himbo https://t.co/YWe30RIQZA
1519012817797582848,LilVampG,Tue Apr 26 17:57:32 +0000 2022,-79.2725695,43.629311,‚Äúwhat‚Äôs wrong?‚Äù uhh idk maybe me wanting another tattoo?
1519012819911553025,HopSunnyBunny,Tue Apr 26 17:57:32 +0000 2022,-77.017853,39.008349499999994,"So true! The young people will bear the HUGE DEBT that they keep allowing to happen, especially from the RUTHLESS c‚Ä¶ https://t.co/SCwy4hOffK"
1519012822117756929,diabeyonce,Tue Apr 26 17:57:33 +0000 2022,-75.117998,40.0048655,"i just remembered our principal would say ‚Äústay classy, pleasant valley‚Äù during the morning announcements and i can‚Ä¶ https://t.co/xFHFK3Lyof"
1519012822541287425,TYsAdventures,Tue Apr 26 17:57:33 +0000 2022,-73.9570172,40.69069105,"I'm at Punta Cana in Brooklyn, NY https://t.co/KZZLkO9nG8"
1519012822772027393,B1ncPendragon,Tue Apr 26 17:57:33 +0000 2022,-79.0021125,35.054626999999996,@sunaringiri Omg he can leave lil marks on me so cute üòçü•∫ü•∫üíï
1519012823275352065,Gigglzgirl,Tue Apr 26 17:57:33 +0000 2022,-76.823345,39.4944215,@mixtapeminimus1 Stop it! üòÇüòÇüòÇ
1519012824260915200,BUTT3RFLYBABY,Tue Apr 26 17:57:33 +0000 2022,-119.02516299999999,35.3469015,what do y‚Äôall get at dutch bros
1519012824869187588,Steve10mo1966,Tue Apr 26 17:57:33 +0000 2022,-90.6006005,38.7578375,@FrankLuntz I'm so glad we're tipping off Russia to the intelligence leak.    Free speech gets people killed.    ..‚Ä¶ https://t.co/0xlmaxiZzc
1519012825187995649,MrJBertrand,Tue Apr 26 17:57:34 +0000 2022,-81.4696845,28.586641999999998,"Y‚Äôall need to check out @AliciaHeraz websites, she‚Äôs on to something major !! I‚Äôve been saying for years people are‚Ä¶ https://t.co/Pe52ahgesL"
1519012825414483968,jasonfr49614616,Tue Apr 26 17:57:34 +0000 2022,-89.2665075,39.7393005,@SantaFeAlways I thought the tender looked familiar
1519012826068750338,daveconte1971,Tue Apr 26 17:57:34 +0000 2022,-73.8494415,40.8503475,"@whitthouse @SaraGonzalesTX Anecdotal nonsense; how sick were these people? Give me a break, troll bastard"
1519012826769145857,Eben_Ik,Tue Apr 26 17:57:34 +0000 2022,-75.117998,40.0048655,@DaROYALemperor Is gun and threat involved? üòÇ cos why exactly will Leicester do this bad swap?
1519012826987339778,tylerdrums_eth,Tue Apr 26 17:57:34 +0000 2022,-90.4419605,38.668105,I can‚Äôt thank @iamblackbear enough for the vulnerability on this record about what he was going thru. You helped me‚Ä¶ https://t.co/r7JT8l22cw
1519012827956006913,estarLA,Tue Apr 26 17:57:34 +0000 2022,-118.4119065,34.0207895,@laylaschlack absolutely üíî just evil
1519012826727202817,ridgerecruiting,Tue Apr 26 17:57:34 +0000 2022,-97.28591349999999,32.7799665,@coachsymons Thanks for stopping by and checking on our Panthers!!! @SMUFB #RECRUITDARIDGE https://t.co/WGtQoSATbE
1519012828572790785,JackBurtonMercr,Tue Apr 26 17:57:34 +0000 2022,-81.3677725,28.501678499999997,"@bendreyfuss Wow, didn't a Hollywood guy would get that."
1519012829101129729,asc89,Tue Apr 26 17:57:35 +0000 2022,-122.4359785,37.7706565,@AnonymousNoise3 Next time just @ me bhai.
1519012829575225346,JyasiGalloway,Tue Apr 26 17:57:35 +0000 2022,-95.44648649999999,29.838495,Johnny Depp just put Amber Heard in a backwood.
1519012829805748225,808bumpp,Tue Apr 26 17:57:35 +0000 2022,-104.92209349999999,39.713563,@Thisisnotmeghan When?? I am trying to buy a ticket I do not see it yet ü•≤
1519012829893840901,LarryMonske2,Tue Apr 26 17:57:35 +0000 2022,-112.12467649999999,33.5528625,@mikemajlak How do you laugh when you kidnapped Lana Rhodes twice nearly killed her she's fighting for her life aft‚Ä¶ https://t.co/JRAWPdKwex
1519012829914927105,FaMeDeLaFleur,Tue Apr 26 17:57:35 +0000 2022,-73.9685415,40.780709,Lmao this Spanish lady keep saying I'm so handsome in Spanish and i kno she racists as hell cuz she was talking abo‚Ä¶ https://t.co/JU3kWRBnH7
1519012831005491201,ColleenPaige1,Tue Apr 26 17:57:35 +0000 2022,-83.1738665,32.6782075,"THIRTY TWO TIMES ON Epstein‚Äôs PLANE??  Photos of docs with Trump, anyone, anyone?  Human trafficking ring, WTFck  i‚Ä¶ https://t.co/dzAGjc4pn6"
1519012831408009217,PilrigPaterson,Tue Apr 26 17:57:35 +0000 2022,-111.91702599999999,40.765805,@ScouseTims Ha ha. He was gash 90% of the time.
1519012832045633536,ReadyOneTakeTwo,Tue Apr 26 17:57:35 +0000 2022,-82.44269399999999,27.9965945,@gdailey57 @ZestoWestCola Hell yes we will!
1519012832502816770,B_DOG94,Tue Apr 26 17:57:35 +0000 2022,-75.3067705,39.937821,Like don‚Äôt hate me for this lost a few friends for no apparent reason
1519012832599330816,DonV757_,Tue Apr 26 17:57:35 +0000 2022,-76.069946,36.8025415,757 finally had our own Coachella and DC stole it from us lmfaooo
1519012833702256642,kiseki_sama__,Tue Apr 26 17:57:36 +0000 2022,-118.167272,33.804261499999996,so which are you not? introvert or extrovert?
1519012834025390080,Tarajii2,Tue Apr 26 17:57:36 +0000 2022,-87.732013,41.8335845,I'm so angry at my creator üò§ right now it's a shame. I don't want to be walking through life an angry bitter black person.
1519012834457358338,TheOneChameleo1,Tue Apr 26 17:57:36 +0000 2022,-84.35244449999999,33.943456999999995,Heartsick...physically sick.
1519012834444775425,Blaine_nhouston,Tue Apr 26 17:57:36 +0000 2022,-95.5398525,30.181251500000002,@sarahhartshorne But the people who are miserable that don't make good art are also kind of annoying
1519012834860056576,missannielynn,Tue Apr 26 17:57:36 +0000 2022,-93.2759195,44.7726875,"@gbpf127 @ItsBoomerAgain That is valid. I do the same. I also feed the basilisk regularly, so I suppose that can co‚Ä¶ https://t.co/lLFsEsOUhA"
1519012835589869568,AUjungleVP,Tue Apr 26 17:57:36 +0000 2022,-85.4915405,32.597245,Happy Birthday @keithetheredge1 ü•≥ü•≥! https://t.co/6QtI5pS0lR
1519012837020127239,TBarbsro,Tue Apr 26 17:57:36 +0000 2022,-81.2487865,42.9488405,@berhizzle Done
1519012837749841921,KissMyBlackAsh_,Tue Apr 26 17:57:37 +0000 2022,-73.9487755,40.655138,Still!!!
1519012837653454849,Jedwards_radio,Tue Apr 26 17:57:37 +0000 2022,-97.412301,48.4158665,Ahhhh yes those are the ‚Äúfull semi-automatic‚Äù Daisy-15‚Äôs a fine weapon for all troublesome children.
1519012838064463874,CharlesSuddeth,Tue Apr 26 17:57:37 +0000 2022,-85.569222,38.2758905,@jodyjsperling Worst advice. They're is nothing wrong with telling .
1519012839373086720,TrackstarGiac,Tue Apr 26 17:57:37 +0000 2022,-83.804475,27.698681999999998,Usually I‚Äôm a plug but I feel so left out up here.. I don‚Äôt know any connects
1519012839280627714,AlpineLakes,Tue Apr 26 17:57:37 +0000 2022,-120.882482,47.273022,@sandibachom ... educated guess Twitter AI knows which accounts are bots &amp; which are actually driven by independent‚Ä¶ https://t.co/dzqnVo0Rv5
1519012839398289409,Stros_Nes,Tue Apr 26 17:57:37 +0000 2022,-95.44648649999999,29.838495,Optimism from Bob.üòÖ
1519012840593629184,MrOneWheelDrive,Tue Apr 26 17:57:37 +0000 2022,-76.07028,45.701446000000004,@JuniperFarm Strawberries!
1519012840794898433,PJPuigJr01,Tue Apr 26 17:57:37 +0000 2022,-81.661524,26.5998075,@ElectionWiz Blood test will tell you if you are confused that is 100% blue check truth
1519012841587621890,SamanthaKolber,Tue Apr 26 17:57:37 +0000 2022,-72.5850645,44.273787,@miriamgershow Hahaha I love it. Exactly what mine looked like too before I wrestled it into a word doc. Which was‚Ä¶ https://t.co/BvaR0uhkwa
1519012841730236417,LuhhBabyyEm,Tue Apr 26 17:57:38 +0000 2022,-80.8467855,35.209058999999996,Not the maintenance man tryin to get da number!üòÇüòÇ
1519012842032279554,Vannah_2x,Tue Apr 26 17:57:38 +0000 2022,-81.705467,41.495939500000006,Ayooooo this the mf oneeeee ‚ùóÔ∏è‚ùóÔ∏è‚ùóÔ∏è
1519012841612845057,mike_moroski,Tue Apr 26 17:57:37 +0000 2022,-84.53981250000001,39.137038000000004,"After AMAZING issues, ASM resets. So exciting. üï∑ https://t.co/SV0Pbr37l3"
1519012842720022528,quis__custodiet,Tue Apr 26 17:57:38 +0000 2022,-118.34421,34.04072,1757ZN267LA LAPD AIR SUPPORT DIVISIONSquawk: 1200N34.0407 W118.3442Altitude: 800ftCourse: 183¬∫Groundspeed: 81‚Ä¶ https://t.co/6BbvncG8Wu
1519012843273785347,TKunders,Tue Apr 26 17:57:38 +0000 2022,-100.0768885,31.1688935,@Kylewking @UMHB @UMHB_COE Thanks Kyle
1519012844024475649,tmj_BNA_skltrd,Tue Apr 26 17:57:38 +0000 2022,-86.7508291,36.1542106,"This job is now open at The Miner Corporation in Nashville, TN. Follow us and turn on mobile alerts to hear about j‚Ä¶ https://t.co/Ojn1AgTxRu"
1519012844875902976,Yvonneezy,Tue Apr 26 17:57:38 +0000 2022,-117.2879235,33.121483999999995,"What‚Äôs worse, being hungover at work or being upset at work? ü´•"
1519012844800339969,tmj_orl_edu,Tue Apr 26 17:57:38 +0000 2022,-81.5439619,28.5691677,"Interested in a job in #Ocoee, FL? This could be a great fit: https://t.co/Zwjpi57RFd #middleschool"
1519012844825550848,tmj_MIU_schn,Tue Apr 26 17:57:38 +0000 2022,-83.6874562,43.0125274,"Join the Penske Truck Leasing team! See our latest Logistics/Supply Chain job openings, including ""Senior Operation‚Ä¶ https://t.co/4fbKCcA7Lt"
1519012844909383680,tmj_OH_facmgmt,Tue Apr 26 17:57:38 +0000 2022,-84.1916069,39.7589478,"Want to work at Kettering Health Network? We're hiring in #Dayton, OH! Click the link in our bio for details on thi‚Ä¶ https://t.co/kdQaprSfuz"
1519012844800331776,uamsnurses,Tue Apr 26 17:57:38 +0000 2022,-92.3542193,34.7486563,Join Arkansas‚Äôs only academic medical center. We‚Äôre looking for our latest Neuroscience Registered Nurses to make a‚Ä¶ https://t.co/ppT7b9qxN6
1519012845375033344,tmj_INL_pharm,Tue Apr 26 17:57:38 +0000 2022,-86.6794756,40.5847256,"Want to work at CVS Health? We're hiring in Delphi, IN! Click the link in our bio for details on this job and more:‚Ä¶ https://t.co/wBQkDaK9aE"
1519012844536315905,shaunlayton,Tue Apr 26 17:57:38 +0000 2022,-123.070225,49.3156065,It‚Äôs been way too long Cap Mall https://t.co/7MrKZL8VVF
1519012845664489476,ZacSpicer,Tue Apr 26 17:57:38 +0000 2022,-79.9135205,43.2606955,Can they at least adopt this logo? https://t.co/iLfyK6T48g
1519012846683701254,trademarkAsh,Tue Apr 26 17:57:39 +0000 2022,-73.723025,45.557830499999994,am i the only one who finds some morally questionable situations aesthetically pleasing
1519012847468097538,iHateAzzy,Tue Apr 26 17:57:39 +0000 2022,-79.905698,40.360909500000005,@CaliTSB @ZeekArkham Cali don‚Äôt forget us when you become famous
1519012847979798529,CoachHitchens,Tue Apr 26 17:57:39 +0000 2022,-97.1691565,31.547449,Yessir üôèüèæ
1519012848931725313,Chinichian,Tue Apr 26 17:57:39 +0000 2022,-119.30660750000001,37.2691755,@RachelRizzo See my fear all these years later is that I‚Äôm going to get yelled at by my parents for grabbing said snack out of the minibar üò≥
1519012848961146880,donovanidk,Tue Apr 26 17:57:39 +0000 2022,-118.4119065,34.0207895,SUCH AN OUT OF THIS WORLD (2) W THIS QUEEN IS UNSTOPPABLE!!!!!!
1519012849405755394,PretzelCo,Tue Apr 26 17:57:39 +0000 2022,-122.3306025,47.614817,like+ratio if you‚Äôre telling me a shrimp fried this rice
1519012851029098498,treglef,Tue Apr 26 17:57:40 +0000 2022,-72.6809665,41.765617,"alright, this just happened https://t.co/6YUqR2TOjE"
1519012851750473733,NoChillTJ,Tue Apr 26 17:57:40 +0000 2022,-96.7850185,33.233433500000004,You don‚Äôt even know my past I was on my last‚Ä¶ on my last
1519012853079941122,Springfdtx,Tue Apr 26 17:57:40 +0000 2022,-105.526476,40.362097,"Moms, give yourselves peace of mind. Sign up for our next car seat check day on May 11l from 10a-2p at Spring Fire‚Ä¶ https://t.co/P4o55rRw9r"
1519012854728433664,heybrian__,Tue Apr 26 17:57:41 +0000 2022,-97.754724,30.323345500000002,I‚Äôm not missing this Lil Baby/Chris Brown tour
1519012855227498499,SMS_8bit,Tue Apr 26 17:57:41 +0000 2022,-80.8467855,35.209058999999996,LOL people used to publish things like this on Facebook years ago thinking it was real. She has no idea how social‚Ä¶ https://t.co/xqTwEyCd9k
1519012855512805379,rafihhhh,Tue Apr 26 17:57:41 +0000 2022,-117.104989,32.810012,I hope she sees this I‚Äôm here to spread nothing but hate
1519012856217415683,JamesSweasyLive,Tue Apr 26 17:57:41 +0000 2022,-85.543011,38.238400999999996,I gained 2 new followers since yesterday.  Algorithm is really opening up! #TwitterTakeover #ElonMusk
1519012857488228353,pennyfeather1,Tue Apr 26 17:57:41 +0000 2022,-87.732013,41.8335845,Tweaking a bumper sticker from the 70‚Äôs: If Dad/Mom seems far away‚Ä¶who moved? (Call them)
1519012858201206785,BansheeBnuuy,Tue Apr 26 17:57:41 +0000 2022,-122.3154215,37.552481,@OurFlagHBOMax stede said https://t.co/NPLpNnfgSV
1519012859656609793,xDARTHxRONIx,Tue Apr 26 17:57:42 +0000 2022,-117.104989,32.810012,I just got offered 2 back to back interviews. One with the county and one with the City of Tacoma in Washington State.I'm so tempted.....
1519012860831150083,spincity615,Tue Apr 26 17:57:42 +0000 2022,-86.791549,36.200008,@BitcoinMagazine @MayorMattie Evil and so is this magazine
1519012860768178176,tjohnsonmedland,Tue Apr 26 17:57:42 +0000 2022,-75.2288909,40.6891291,Just posted a photo @ Kirby Center Wilkes Barre Pa https://t.co/ajmMozYgkt
1519012859518369793,adamscameron,Tue Apr 26 17:57:42 +0000 2022,-80.93782,29.10054,We are looking for a buyer on 4651 South Atlantic Ave #506 #PonceInlet #FL  #realestate https://t.co/Mq9tqiygqJ https://t.co/xbc3ZxwRxZ
1519012861246423042,Latinvixen,Tue Apr 26 17:57:42 +0000 2022,-81.7466685,28.588584500000003,@ValakyrHusky That‚Äôs what I hope here as well üòä
1519012860466286592,CultureFashion5,Tue Apr 26 17:57:42 +0000 2022,-87.9672925,43.0567225,shop https://t.co/6d4cQubdlT #explorepage #hoodie #culture #fyp #foryoupage https://t.co/Cg40RCILtH
1519012861821038595,JasonBenrubi,Tue Apr 26 17:57:42 +0000 2022,-75.117998,40.0048655,@BigM33sh Congrats bro!
1519012861506252800,BookieKillerKid,Tue Apr 26 17:57:42 +0000 2022,-82.063185,33.4407175,@NASA @elonmusk ü§£ü§£ü§£ Look at the trick or treaters...who made their costumes üòÇüòÇ Y‚Äôall really believe in all this sh*‚Ä¶ https://t.co/STY7dm6K46
1519012862164930561,IntezAli,Tue Apr 26 17:57:42 +0000 2022,-87.74470600000001,42.034116499999996,@cuzzortryan85 @ifyougotthetime @MiccicheCain @ABC The definition and purpose of the press conference is to inform‚Ä¶ https://t.co/eaeZNVGzRe
1519012862039146498,x_HoneyyBrown,Tue Apr 26 17:57:42 +0000 2022,-80.8467855,35.209058999999996,Never.
1519012862336716805,310Jacki,Tue Apr 26 17:57:42 +0000 2022,-118.40899,34.0060125,@georgialove0916 People in Oklahoma seem to suffer from brain damage from all the conspiracies they listen to
1519012863020515329,taybroadbent,Tue Apr 26 17:57:43 +0000 2022,-97.4451735,35.222301,I‚Äôm such a fan girl for a Haaland-Buttigieg 2024 ticket
1519012863045632000,rmaciasv,Tue Apr 26 17:57:43 +0000 2022,-117.104989,32.810012,@SUHSD @ChulaVistaPD what's going on at #castleparkhigh lockdown?
1519012864744435712,BHHSCDanJoyner,Tue Apr 26 17:57:43 +0000 2022,-82.2053,34.8114,We are looking for a buyer on 139 Carsons Pond Drive #Simpsonville #SC  #realestate https://t.co/kUpMpUtPr0 https://t.co/4bpnEKVHeB
1519012865423732736,isomeme,Tue Apr 26 17:57:43 +0000 2022,-118.48042000000001,34.022688,"@firemoggle Yes, I too am in the ""unable to look away from the show-motion train wreck"" camp."
1519012865323069440,Conman626,Tue Apr 26 17:57:43 +0000 2022,-118.035289,34.070871,Just registered for 2022 Covina Fun Run  https://t.co/abVaJ5KauF via @RaceWireLive
1519012866271203333,FLsportsgirl_C,Tue Apr 26 17:57:43 +0000 2022,-80.1386455,26.251895,@Awokewon Luckily the lift still got done üí™
1519012867147649024,Ha68153420Brian,Tue Apr 26 17:57:44 +0000 2022,-122.630908,45.536402,@sigurd_mn I hope you come to understand and love the game.  It is fun to people watch at the game.
1519012867432923136,ALewisMD,Tue Apr 26 17:57:44 +0000 2022,-87.732013,41.8335845,@MerThomp Thank you!!
1519012870133977088,goat_of_cats,Tue Apr 26 17:57:44 +0000 2022,-122.4359785,37.7706565,"@amockingbird @KatieOnViolin I really didn‚Äôt like the hat, I don‚Äôt think Gibson approved either üòπ https://t.co/pX9kjjX0Xq"
1519012870981398529,MaNana2Zaza,Tue Apr 26 17:57:44 +0000 2022,-88.5653355,44.033276,@pulte Could REALLY use help. New landlord raising rent by $240! I'm disabled &amp; raising g.daughter. I don't know wh‚Ä¶ https://t.co/O8Y61hfR6b
1519012872000401411,MichaelJLev,Tue Apr 26 17:57:45 +0000 2022,-110.9155735,32.1893905,@jasonscheer @dbrooks720 @TucsonRomero @whatsuptucson No joke.
1519012872046751744,Jordan_Streets4,Tue Apr 26 17:57:45 +0000 2022,-82.6694675,40.365159500000004,you know this about to be a banger with a title like that
1519012872147382280,CurtKeyz,Tue Apr 26 17:57:45 +0000 2022,-80.8467855,35.209058999999996,@Willie_Qool My guy! ü§üüèøüñ§
1519012873896284161,GarnetBees,Tue Apr 26 17:57:45 +0000 2022,-123.123581,49.257639,@RoyaltySpud Here's a prawn playing a saxophone. https://t.co/UGs6kMlMRK
1519012874294751234,DebraCollard1,Tue Apr 26 17:57:45 +0000 2022,-120.58340150000001,44.1454365,Sounds hypocritical. Your husband is not helping our service people by mandates. By reducing $. By sending vets drs‚Ä¶ https://t.co/hoOopjphDc
1519012874772893696,VincentDeluard,Tue Apr 26 17:57:45 +0000 2022,-119.30660750000001,37.2691755,"On Mar 10, 2020, I wrote in ""Let Them Eat Bonds""‚ÄúLet them eat cake‚Äù was Marie Antoinette‚Äôs response to reports th‚Ä¶ https://t.co/BVsupFk2iP"
1519012877587423233,Join_The_ARC,Tue Apr 26 17:57:46 +0000 2022,-83.2656345,42.7539075,@elonmusk Edit button
1519012878031929349,x_iceberg,Tue Apr 26 17:57:46 +0000 2022,-104.92209349999999,39.713563,"The question is not, Can they reason?, nor Can they talk? but, Can they suffer?"
1519012878170222593,thatshortbitch5,Tue Apr 26 17:57:46 +0000 2022,-119.02516299999999,35.3469015,I haven‚Äôt gone to the gym in a week and i didn‚Äôt gain any weight ü•πü•πü•π
1519012878631653376,tmj_CA_peds,Tue Apr 26 17:57:46 +0000 2022,-118.781482,34.2694474,"Have you ever had a role like ""Pediatrician (Facey Medical Group)""? What did you like most about that job? #Pediatrics #SimiValley, CA"
1519012878921216000,__philo___,Tue Apr 26 17:57:46 +0000 2022,-95.44648649999999,29.838495,all I feel is nerves.
1519012879059591169,Scottslifeeh,Tue Apr 26 17:57:46 +0000 2022,-80.2739375,43.147571,@amocoboy @Thedukeistheman @GreekVikingX @Torqufmada @Dwyertd @oboy_jay @123Resonate Oh ya ok sure yup.
1519012879164264448,tmj_mad_eng,Tue Apr 26 17:57:46 +0000 2022,-89.4592493,43.0382297,"See our latest #Madison, WI #Engineering job opportunity and click the link in our bio to apply: Business Unit Reli‚Ä¶ https://t.co/7211fuPvBt"
1519012879860736001,renzot1954,Tue Apr 26 17:57:47 +0000 2022,-82.74685099999999,28.085863500000002,@JustAMomNamedMP What a beautiful thought.
1519012879810412544,bill_mynatt,Tue Apr 26 17:57:47 +0000 2022,-83.9638415,35.9824705,@MopedTN @BigBoyVol Food City is totally dependent on who is managing the deli. The one closest to me is not good a‚Ä¶ https://t.co/lCtNOAH04O
1519012880057724928,tmj_ND_secure,Tue Apr 26 17:57:47 +0000 2022,-97.0328547,47.9252568,This job might be a great fit for you: Security Officer- Overnight - https://t.co/MiBK2M6cTN #SecurityGuard #Safety
1519012880221413377,sbgsmokegod12,Tue Apr 26 17:57:47 +0000 2022,-73.9487755,40.655138,u only look good w me btw.
1519012880418488325,simothysimothy,Tue Apr 26 17:57:47 +0000 2022,-79.9135205,43.2606955,@qaichoo paul dano looks lactose
1519012880393244673,tmj_dtw_it,Tue Apr 26 17:57:47 +0000 2022,-83.2732627,42.3369816,"We're hiring in #DearbornHeights, MI! Click the link in our bio to apply to this job and more: AI/Machine learning‚Ä¶ https://t.co/JpuQmtf87W"
1519012880674443265,SherryLeigh5,Tue Apr 26 17:57:47 +0000 2022,-90.4505175,38.5104895,@Mbagwell80 @MMcKendree @StephenKing @TuckerCarlson Mahatma Gandhi once said ‚ÄúI like your Christ. I do not like you‚Ä¶ https://t.co/KKmH7aI3xb
1519012880770748422,tmj_cte_adv,Tue Apr 26 17:57:47 +0000 2022,-71.4778902,41.9933953,"CVS Health is hiring in Woonsocket, RI! Read about our latest #marketing #marketingjobs job opening via the link in‚Ä¶ https://t.co/19rF243O0X"
1519012881789972480,EnFamous_P,Tue Apr 26 17:57:47 +0000 2022,-119.165389,34.181956,Smoke sesh with the homie @ONEOFONE33
1519012881907429376,tmj_bhm_legal,Tue Apr 26 17:57:47 +0000 2022,-86.80249,33.5206608,"Career tip for landing jobs like ""Senior Compliance Analyst"" in #Birmingham, AL. Go on informational interviews. Th‚Ä¶ https://t.co/wLVcjaas3Y"
1519012882494541824,edconnaghan,Tue Apr 26 17:57:47 +0000 2022,-96.7977,32.7774,"Just posted a photo @ Dallas, Texas https://t.co/d9R7yBNFjE"
1519012882486235136,tmj_PDX_secure,Tue Apr 26 17:57:47 +0000 2022,-122.989827,45.5228939,Looking to score a job at Allied Universal? You're in luck. Click the link in our bio for the job description and i‚Ä¶ https://t.co/jqN5X9Movu
1519012882691739648,MotherRiverZen,Tue Apr 26 17:57:47 +0000 2022,-121.191453,39.2394905,Poor poor pathetic morons. Thedse people walk among us. And they VOTE.
1519012885589946368,Mistad00d,Tue Apr 26 17:57:48 +0000 2022,-123.1224015,44.065621,@YoungHustla706 @TyLuckyOfficial I missed the space we talking about Mac Dre?
1519012886412251137,JEgglestonWFXG,Tue Apr 26 17:57:48 +0000 2022,-82.063185,33.4407175,Commissioner John Clarke came to the public safety committee with a request from the sheriff‚Äôs office. They are loo‚Ä¶ https://t.co/icOvb7B15t
1519012886550659076,PRCharmedFan,Tue Apr 26 17:57:48 +0000 2022,-88.44738749999999,43.7625525,"@caine__cuthbert @FilmUpdates The second movie will be released on December 25th, 2025"
1519012886844219394,SEHS_Lacrosse,Tue Apr 26 17:57:48 +0000 2022,-81.80305150000001,41.4804175,üö®GAMEDAYüö® Game #11 !! Eagles vs @hoovervikinglax in a huge region 2 matchup!!ü¶Ö JV/Varsity Vs Hoover‚è∞ 5PM/7PMüìç H‚Ä¶ https://t.co/iELlkxppIG
1519012886944923648,VietnamViG,Tue Apr 26 17:57:48 +0000 2022,-73.9685415,40.780709,Me when @Battlefield drops some content and gives Irish the G-unit tank top we all want. #Battlefield2042 https://t.co/GHGdRlNHe2
1519012888681369603,TheActualDiesel,Tue Apr 26 17:57:49 +0000 2022,-90.4419605,38.668105,This.
1519012888270102529,IveSeenFootage,Tue Apr 26 17:57:49 +0000 2022,-122.362414,37.948843,"""Caucasian only"" on a job posting in 2022 ü§¢ https://t.co/T4ZQDht0Z3"
1519012889171881984,mell0wmellyy,Tue Apr 26 17:57:49 +0000 2022,-119.7824645,36.786041999999995,For some reason my older brothers sound like total pochos when they attempt to speak Spanish. How am I the youngin‚Ä¶ https://t.co/JElE8YDdPl
1519012889205616642,Ramon_Smothers,Tue Apr 26 17:57:49 +0000 2022,-95.44648649999999,29.838495,They fly af üî•üî•üî•
1519012891894059009,itsmalsuzanne,Tue Apr 26 17:57:49 +0000 2022,-118.4119065,34.0207895,@yusefireown you‚Äôre not my ex anymore i dont even need themüòí
1519012892217155585,raymondafoss,Tue Apr 26 17:57:50 +0000 2022,-83.804475,27.698681999999998,"What is #love, who is my #neighborChrist's commandment, God's Law,to love our neighbor as Christ loves us;But w‚Ä¶ https://t.co/YRX0noNQMq"
1519012892800131072,SwimMaley,Tue Apr 26 17:57:50 +0000 2022,-90.11817223,32.4136396,We‚Äôre hiring and We Want You to join our team! @ Maley Swim School https://t.co/aYwmf99oMZ
1519012893420924931,KRuvalcaba_AHS,Tue Apr 26 17:57:50 +0000 2022,-100.0768885,31.1688935,Congrats my Sam üß°üíô‚õè I‚Äôm one proud auntie!
1519012893748047872,RiggsRadio,Tue Apr 26 17:57:50 +0000 2022,-88.009557,42.8943045,Visits Laryngologist to check my vocal cords. He takes a peek for 20-30 seconds with a little scope camera in the b‚Ä¶ https://t.co/kVBjr12dvy
1519012893890469890,soulpole415,Tue Apr 26 17:57:50 +0000 2022,-122.4359785,37.7706565,@ZeekArkham How about you?
1519012894855340032,Chandler_Latus,Tue Apr 26 17:57:50 +0000 2022,-96.830648,32.826797,Y‚Äôall ever shit soo hard that you were hungry afterwards ? Yeah ‚Ä¶me neither
1519012895312461826,aarxnjamal,Tue Apr 26 17:57:50 +0000 2022,-77.101999,38.8808445,Why is everything being announced today? I‚Äôm poor üò≠
1519012896373673984,kathy_bruni,Tue Apr 26 17:57:51 +0000 2022,-79.0213085,33.586552999999995,@MeidasTouch Did anybody mention that he can‚Äôt get security briefings. Yup that‚Äôs just what we need in the Senate
1519012895761342464,jamesholland317,Tue Apr 26 17:57:50 +0000 2022,-90.587654,37.861523500000004,@0Funky11 @CarlosDJT2024 @JRBoomer618 @BrianHPatriot76 @GabiNga1 @1be3z @LionHearted76 @FAB87F @__LadyFree‚Ä¶ https://t.co/am1G9BVyNr
1519012896453410820,Ladybug4747,Tue Apr 26 17:57:51 +0000 2022,-82.961163,34.694002,@tforce13 Hey Troy!
1519012896759599108,WandaEstrella13,Tue Apr 26 17:57:51 +0000 2022,-72.731526,41.685889,@TheLeoTerrell Traitor
1519012896516235266,alb_boutique_l,Tue Apr 26 17:57:51 +0000 2022,-80.36688050000001,25.6368545,Cry baby ‚ù§Ô∏è https://t.co/0rdhsxrIa6
1519012897032183811,whatjuthinkin,Tue Apr 26 17:57:51 +0000 2022,-75.117998,40.0048655,I love strangers who take the time to acknowledge you promoting their work just cause you like it. People you actua‚Ä¶ https://t.co/FcsgVQ4kTc
1519012897053151233,808sAndSneakers,Tue Apr 26 17:57:51 +0000 2022,-77.230881,38.916760999999994,damn I need pull up
1519012897334218752,ThomasB61446446,Tue Apr 26 17:57:51 +0000 2022,-83.1480435,42.579003,@nypost Howard Stern is a Pagan! Who cares what that clown says?
1519012897946411009,GinaReppinDaBay,Tue Apr 26 17:57:51 +0000 2022,-122.4359785,37.7706565,Subscribe &amp; Listen! üôè
1519012898395373574,DaKount,Tue Apr 26 17:57:51 +0000 2022,-90.24782400000001,38.653771,@andybankertv Unbelievable üò≠‚öæÔ∏è
1519012898558861312,Sisijm333,Tue Apr 26 17:57:51 +0000 2022,-81.986834,26.63648,I Jus Wanna Lay Up Wit Sumbody Else boyfriend mine make me so Miserableü•∫
1519012899204722689,As_Fan_Radio,Tue Apr 26 17:57:51 +0000 2022,-122.2286855,37.791994,@CraigMerry Bruce needs to be called out on his bullshit &amp; fake outrage.
1519012899792080901,BanxTrappin,Tue Apr 26 17:57:51 +0000 2022,-100.0768885,31.1688935,If you won‚Äôt do it for me. I won‚Äôt do it for you‚Ä¶
1519012900022665216,CMTubbs,Tue Apr 26 17:57:51 +0000 2022,-93.3613205,46.441860500000004,So many stories for Curt Hennig fans. Maybe what people remember him for the most.
1519012901079719940,dwolfman54,Tue Apr 26 17:57:52 +0000 2022,-73.766756,43.066929,"@KamVTV Well Kam, that was just to be provocative, right? Is there a difference between saying the word ""penis"" and‚Ä¶ https://t.co/n1P92KWTJd"
1519012901486481414,shivas_ga07,Tue Apr 26 17:57:52 +0000 2022,-81.381449,31.177709,Yeah
1519012901788393478,docholliday_dds,Tue Apr 26 17:57:52 +0000 2022,-107.554562,43.000325000000004,@gbuchdahl He owes us all money? I didn't know that. Thanks for sharing.Will be looking into that right away.
1519012901872308225,mandrews93DFS,Tue Apr 26 17:57:52 +0000 2022,-117.104989,32.810012,"Or if you want to keep using DK SGP, make sure player props in them are for players actually starting. Not ideal bu‚Ä¶ https://t.co/LtFNbQrugc"
1519012902279163905,touchedbyten,Tue Apr 26 17:57:52 +0000 2022,-112.12467649999999,33.5528625,@robertjwolfmd Many of us won't find purpose.
1519012903373877248,donovanidk,Tue Apr 26 17:57:52 +0000 2022,-118.4119065,34.0207895,@LivBurk @Obsidian LETS GOOOO IM SO HAPPY FOR YOU WE CELEBRATE SOON!!!!
1519012903478644738,joelanthonystan,Tue Apr 26 17:57:52 +0000 2022,-123.2793435,44.5692455,It‚Äôs Alexs birthday and I can‚Äôt stop thinking of my ex girlfriend
1519012904015745025,Thee_McNasty_,Tue Apr 26 17:57:52 +0000 2022,-77.0143985,38.898602999999994,@NerimahThat I would've said this at the alter üòÇ
1519012904900739073,ThyButcher9,Tue Apr 26 17:57:53 +0000 2022,-86.9299805,40.459081499999996,@woodsonwhiskey @CharlesWoodson @InterceptWines @Bellagio @lilybarlv @BreakthruVegas Best Whisky out!
1519012904795705345,BushLeagueBlake,Tue Apr 26 17:57:53 +0000 2022,-117.104989,32.810012,"Lots of firstnamebunchofnumbers, single digit followers, no PFP, anonymous keyboard warriors in the comments. Fuck‚Ä¶ https://t.co/fFOJHpUII8"
1519012905479544832,trishinmn,Tue Apr 26 17:57:53 +0000 2022,-93.1642575,44.4497475,@oona_paredes @santisugi Of such things I know nothing.
1519012905412354048,BobbyThakkar,Tue Apr 26 17:57:53 +0000 2022,-73.9685415,40.780709,Let‚Äôs be honest about DAO‚ÄôsDAO = Decentralized Autonomous Organizations But they not really autonomous DO = D‚Ä¶ https://t.co/IpCULjNpB9
1519012905466925057,sonicgabe,Tue Apr 26 17:57:53 +0000 2022,-82.67290299999999,27.7957195,@MeerkatsRMammal @MichaelEHayden Thoughts and prayers to his inheritance from the Auto Trader empire.
1519012905852805120,Travrs17Stoudt,Tue Apr 26 17:57:53 +0000 2022,-75.84946450000001,40.292511000000005,@rail_breaker31 @sircatstock @FoxNews I mean I wouldn‚Äôt recommend taking anything she says seriously
1519012904246390787,cheeeeeeza,Tue Apr 26 17:57:52 +0000 2022,-74.7243235,40.073040500000005,Drunk talking to myself üòÇ‚òîÔ∏è https://t.co/TbQHu06D7f
1519012906888839168,ed_edd_eddielee,Tue Apr 26 17:57:53 +0000 2022,-84.266174,30.476215500000002,Butterflies gonna be flying relentlesslyüòÆ‚Äçüí®
1519012907194863617,AntonioILiranzo,Tue Apr 26 17:57:53 +0000 2022,-118.4119065,34.0207895,@stephanietara ‚úçüèΩ Page: https://t.co/8HUeJEx2q2üíª: https://t.co/IGajHDb9AJ
1519012907853434888,texastripe,Tue Apr 26 17:57:53 +0000 2022,-97.754724,30.323345500000002,4th week AustinS Austin 115pmRosenberg 430pm Katy 530pm West Houston 615pm 903 658 0140
1519012909090803714,JediFett,Tue Apr 26 17:57:54 +0000 2022,-70.705693,42.1119705,So things are going great in LakerLand
1519012909455601666,l0vely_heartss,Tue Apr 26 17:57:54 +0000 2022,-111.7375655,33.4057545,@xairawrig You when 13-14 year olds
1519012909854121984,hecallsmePP,Tue Apr 26 17:57:54 +0000 2022,-76.62048200000001,39.284712999999996,@synthomagnetic Yup! There‚Äôs a plaque there even that states that‚Äôs where it happened and I know where I‚Äôm going this weekend lol
1519012910080696325,BenNune89404356,Tue Apr 26 17:57:54 +0000 2022,-73.8311875,40.6708795,@atrupar He‚Äôs using the same tactic as CRT trying to give the Rubes red meat and a appearance on Fox News
1519012910298804225,HAS5AM,Tue Apr 26 17:57:54 +0000 2022,-83.804475,27.698681999999998,@Ionesometowns It‚Äôs one of my personalities
1519012910969892864,RogerMacNicol,Tue Apr 26 17:57:54 +0000 2022,-76.1522925,40.2124575,@bbcemt Now Scotland needs to do the same.
1519012911213068289,_iLcaponero,Tue Apr 26 17:57:54 +0000 2022,-80.045939,32.914424499999996,Gel Deodorant is the worst invention ever. That shit sucks
1519012911326277633,itsmelaurab,Tue Apr 26 17:57:54 +0000 2022,-118.4119065,34.0207895,and when i go to the weeknd's tour for doja then what.....
1519012912978968576,heydusti,Tue Apr 26 17:57:55 +0000 2022,-85.4915405,32.597245,@hannahhisdead @LionsRoar83 There are still high school classmates of mine ‚Äî class of 1994 ‚Äî who also have shared FB accounts.
1519012913129787393,Pacificant,Tue Apr 26 17:57:55 +0000 2022,-122.4359785,37.7706565,"I was a volunteer at the #conservatoryofflowers for nearly 2yrs. On Sundays, I often drove (the 44 is largely bunk)‚Ä¶ https://t.co/lkepoRR2g6"
1519012913251602435,JeffF050958,Tue Apr 26 17:57:55 +0000 2022,-81.765206,30.1446445,@PFF_College Tony Boselli
1519012913389916164,WETHEKINGDOMQ99,Tue Apr 26 17:57:55 +0000 2022,-79.861034,35.1704985,@DebbySue1776 @Patriot25418086 REAL TRUTH MATTERS üíØ üëè üôå SIMPLE IT'S WHAT SETS US ALL FREE https://t.co/ViYTyaY23z
1519012915071881220,JennieStevens_,Tue Apr 26 17:57:55 +0000 2022,-79.267953,43.327593,@Warrender Good catch! Thank you! We will be converting LOANS to Grants!! Thank you!
1519012916191715328,cbc_dc,Tue Apr 26 17:57:55 +0000 2022,-77.0143985,38.898602999999994,@LostLagers Variety is the spice of life?!?!
1519012916472651776,anthonybpascual,Tue Apr 26 17:57:55 +0000 2022,-119.30660750000001,37.2691755,Term ending üôèüèºü•≤ #psych ü©∫
1519012916653080579,AlvarezImages,Tue Apr 26 17:57:55 +0000 2022,-78.837021,35.7561885,"@sgtwitdajuice That's nothing to do with PC. That's just homophobic. You can easily use another insult, but it's in‚Ä¶ https://t.co/j3i1a5zaL5"
1519012917055832068,KrystleEmerald_,Tue Apr 26 17:57:55 +0000 2022,-73.9685415,40.780709,"@MsDajahbelle Nah‚Ä¶ but, I see it üòÇüò≠üò≠"
1519012917437509641,x__FuckinnLegit,Tue Apr 26 17:57:56 +0000 2022,-92.0611765,30.206079000000003,I want some KOK but I ain‚Äôt rich like y‚Äôall üò©
1519012917588332544,TinyAbomb83,Tue Apr 26 17:57:56 +0000 2022,-111.931711,34.1682535,@joshuak08 @nickingram1 @shannonrwatts @ABCNews4 Well thank you!
1519012917420691460,BoydCothran,Tue Apr 26 17:57:56 +0000 2022,-79.2725695,43.629311,Congratulations!!
1519012917722681346,tolandscapin,Tue Apr 26 17:57:56 +0000 2022,-82.7840955,27.8470705,@TBLightning Hope y‚Äôall wasn‚Äôt around herüòÇüòÇüòÇüòÇ
1519012918704017408,David_The_Crook,Tue Apr 26 17:57:56 +0000 2022,-119.30660750000001,37.2691755,Beautiful day to take some money üí∞
1519012920566460416,AngelGutie3,Tue Apr 26 17:57:56 +0000 2022,-100.0768885,31.1688935,@GinaMViel @OutlawGalsMC @swampmaid She‚Äôs definitely the queen
1519012922227191808,tmj_ORF_secure,Tue Apr 26 17:57:57 +0000 2022,-75.977985,36.8529263,"Career tip for landing jobs like ""Security Officer"" in Virginia Beach, VA. Go on informational interviews. The best‚Ä¶ https://t.co/rOP6BeO8v8"
1519012922369921028,ladylotus_eater,Tue Apr 26 17:57:57 +0000 2022,-87.923975,42.1249405,‚ÄúUr so brave for sharing ur story‚ÄùNo stuff just happens to me and I can‚Äôt shut up
1519012922550366208,TrumpityDumpity,Tue Apr 26 17:57:57 +0000 2022,-74.7243235,40.073040500000005,@shanlonwu She's an idiot.
1519012922692816896,AntonioILiranzo,Tue Apr 26 17:57:57 +0000 2022,-118.4119065,34.0207895,@AlexandriaJSno1 ‚úçüèΩ Page: https://t.co/8HUeJEx2q2üíª: https://t.co/IGajHDb9AJ
1519012922902556678,tmj_STL_intern,Tue Apr 26 17:57:57 +0000 2022,-90.2999885,38.6557218,"This job is now open at CVS Health in #StLouis, MO. Follow us and turn on mobile alerts to hear about jobs like the‚Ä¶ https://t.co/iu7QvYJVdO"
1519012923208699904,tmj_VAL_secure,Tue Apr 26 17:57:57 +0000 2022,-77.1067698,38.8799697,"Want to work at Mastercard? We're hiring in #Arlington, VA! Click the link in our bio for details on this job and m‚Ä¶ https://t.co/fEqT6NO11o"
1519012923699449856,tmj_MNS_retail,Tue Apr 26 17:57:57 +0000 2022,-94.0139509,45.231744,"We're hiring in #MapleLake, MN! Click the link in our bio to apply to this job and more: ASST STORE MGR in MAPLE LA‚Ä¶ https://t.co/otADcSPezx"
1519012923854651392,tmj_ct_sales,Tue Apr 26 17:57:57 +0000 2022,-73.541744,41.0411194,"If you're looking for work in #Stamford, CT, check out this job: https://t.co/HLl48D3V79 #cintasjobs"
1519012924496527366,cjcamper_,Tue Apr 26 17:57:57 +0000 2022,-86.791549,36.200008,@UnnamedLov3 @lefthandedhater Why they got a swole eye?
1519012925041745921,powerfullbussy,Tue Apr 26 17:57:57 +0000 2022,-73.9487755,40.655138,If he think I‚Äôm texting him back‚Ä¶. ‚úåüèΩ
1519012926623039493,carrienewlove,Tue Apr 26 17:57:58 +0000 2022,-73.8311875,40.6708795,@demasiadamujere Are they on a date here??
1519012927713562627,kharmyn24,Tue Apr 26 17:57:58 +0000 2022,-87.732013,41.8335845,"I just updated my tours on my @WeAreTrystNA profile! Catch me in Chicago soon. To pre-book, visit https://t.co/Z5smt6x6oD"
1519012927608700929,tgraham1908,Tue Apr 26 17:57:58 +0000 2022,-91.0907995,30.4591,In Judiciart B #SB418Senator Smith and Senator Henry are giving their 100% attention! @#TheOthers not so much!!‚Ä¶ https://t.co/3mz9IFBInk
1519012928275558404,everyEarthquake,Tue Apr 26 17:57:58 +0000 2022,-122.7490005,38.7975006,"USGS reports a M0.63 earthquake, 2km NNE of The Geysers, CA on 4/26/22 @ 17:55:31 UTC https://t.co/2TaIqjYan6 #earthquake"
1519012929416409090,ClassicalDinner,Tue Apr 26 17:57:58 +0000 2022,-97.884547,30.332431,Tickets now available! Link in profile! #classicalmusic #saxophone #austin #atx #austintexas @AustinSaxophone https://t.co/i9t4xUTOFa
1519012930225770496,piwdono,Tue Apr 26 17:57:59 +0000 2022,-114.3106095,34.491052999999994,"@rugged_blood go to a few tattoo conventions check out  diff artists then find  who fits you, my tradish, 111 was d‚Ä¶ https://t.co/3Paocbn2Es"
1519012930158678016,BostonMarketJob,Tue Apr 26 17:57:59 +0000 2022,-82.7084732,28.0124716,"Careers at Boston Market are a million miles from flipping burgers. Come find out by joining our Safety Harbor, FL‚Ä¶ https://t.co/nrTEwglVh5"
1519012930246914050,TylerRevolution,Tue Apr 26 17:57:59 +0000 2022,-83.804475,27.698681999999998,"Just to let everyone know, @GovRonDeSantis insane attack on @WaltDisneyWorld @Disney has not made an impact on crow‚Ä¶ https://t.co/Kf9aoKqJSn"
1519012930666348547,dumpstxrfire,Tue Apr 26 17:57:59 +0000 2022,-77.187873,38.863045,@STOPHEATHERTIME I would still snag that gochujang while you‚Äôre there so you can make vegan soondubu jjigae or kimc‚Ä¶ https://t.co/1QHp8nDKed
1519012931660308480,perkinssarah47,Tue Apr 26 17:57:59 +0000 2022,-80.926628,33.6311395,Steffy's loving parents are right thereüò¢ #BoldandBeautiful
1519012933145182209,MirandasRandom,Tue Apr 26 17:57:59 +0000 2022,-76.84886449999999,38.9265495,A big girl job is non hourly? I‚Äôve never had a big girl job. The most I ever made hourly was $15.
1519012933199613952,Old_Humble,Tue Apr 26 17:57:59 +0000 2022,-95.44648649999999,29.838495,"@RealTigreM But‚Ä¶ That‚Äôs not at all what‚Äôs happening. If you read the article, employee interest groups can fly thei‚Ä¶ https://t.co/wJIZRfrVEr"
1519012934768377857,DarranChamps,Tue Apr 26 17:58:00 +0000 2022,-95.44648649999999,29.838495,"I have been called this at work by a patient, and while no malice was intended,  it still stings to hear ut directe‚Ä¶ https://t.co/LlvLxwRIyI"
1519012935082950658,_MikeBishop,Tue Apr 26 17:58:00 +0000 2022,-75.117998,40.0048655,Remember when you were a little kid on the playground and you liked a girl but you didn‚Äôt know how to tell her so y‚Ä¶ https://t.co/mOIaQazWP2
1519012936525783044,Goatalogy,Tue Apr 26 17:58:00 +0000 2022,-93.3407565,45.108095500000005,"i used to hate talking to people man, especially new people. but over the years I‚Äôve learned how important it is to‚Ä¶ https://t.co/k7aqAW2vTo"
1519012936458522624,texastrashtoast,Tue Apr 26 17:58:00 +0000 2022,-122.2286855,37.791994,@Nintendopex 4K tiddies
1519012936676782083,Andypry,Tue Apr 26 17:58:00 +0000 2022,-75.117998,40.0048655,@shannonawink @morri_mike If I‚Äôm getting in a car I‚Äôm going to that other state 95% of the time honestly
1519012937389776899,donniew031971,Tue Apr 26 17:58:00 +0000 2022,-96.835249,33.1501395,I would have made a good Christian attorney or PI
1519012938358476800,FutureXBT,Tue Apr 26 17:58:01 +0000 2022,-118.4119065,34.0207895,@ksicrypto @LomahCrypto Broooooo pump it this dude never misses
1519012940367736832,NoahDavidGregor,Tue Apr 26 17:58:01 +0000 2022,-87.9188,43.0373,"Summer cut starts now#gorillamode @ Milwaukee, Wisconsin https://t.co/Pru4pZVGL5"
1519012941906948096,theybelikefaith,Tue Apr 26 17:58:01 +0000 2022,-118.4119065,34.0207895,@amser409 @TheRealWarioMan @Buncahn Then what‚Äôs the point of the cleaning lady why we payin her ? Don‚Äôt make sense.‚Ä¶ https://t.co/R6QPsdxau6
1519012942200647682,BayouLSU,Tue Apr 26 17:58:01 +0000 2022,-90.0402756,29.879652,Absolutely perfect out the gate. Amazing golfing beer - Drinking a DDH Ghost In the Machine 2022 by @parishbrewing‚Ä¶ https://t.co/lfXYoV9r0h
1519012942842368001,ariccio,Tue Apr 26 17:58:02 +0000 2022,-73.9685415,40.780709,@bethfertig you know what's interesting? I have heard over the past few days about people losing large numbers of f‚Ä¶ https://t.co/E63MtM3Uxa
1519012943223877632,AntonioILiranzo,Tue Apr 26 17:58:02 +0000 2022,-118.4119065,34.0207895,@tweeterforyou2 ‚úçüèΩ Page: https://t.co/8HUeJEx2q2üíª: https://t.co/IGajHDb9AJ
1519012944234926080,6__juicePenn1y,Tue Apr 26 17:58:02 +0000 2022,-86.27053950000001,45.001180000000005,aye they lows kilt this but I was just waiting for Baby to say the N word and I was on ass üòÇüòÇ
1519012944423530497,pdxsherrifflog,Tue Apr 26 17:58:02 +0000 2022,-122.430586,45.508966,"ROBBERY - PRIORITY *H at 1600 NW FAIRVIEW DR, GRSM [Gresham Police #PG22000015221] 08:56 #pdx911"
1519012945002442753,thejocelynann,Tue Apr 26 17:58:02 +0000 2022,-79.46781200000001,36.078021,i dont like how y‚Äôall fake don‚Äôt like watermelon
1519012945837101064,cactus_music,Tue Apr 26 17:58:02 +0000 2022,-95.562444,29.623472,@GreatDayHouston Thank you again for taking the time to talk to us üôèüèª‚ù§Ô∏è https://t.co/X24y6Xeh45
1519012946386501632,fembttm,Tue Apr 26 17:58:02 +0000 2022,-96.7349005,33.061242500000006,i need an eater in dallas for laterüí©üí©üí©
1519012946529112064,xray_prof,Tue Apr 26 17:58:03 +0000 2022,-86.142212,40.472726,Received an email from my college professor. He was an amazing prof &amp; mentor. Made my day!
1519012946977996803,mikef3825,Tue Apr 26 17:58:03 +0000 2022,-90.1786295,30.001244,@TheTiffanyLuvv Spot on Tiffany! ü§ù
1519012947045015558,Brownsugaknb,Tue Apr 26 17:58:03 +0000 2022,-79.418222,36.607196,They worried about Brooke and hope. They need to be worried about Shelia kick Shelia the fuck out asap #BoldandBeautiful
1519012947347001344,NikoEsquire,Tue Apr 26 17:58:03 +0000 2022,-76.50780850000001,37.090301,"@StevenTDennis Tax hike on whom? Millionaires &amp; billionaires? Or poor &amp; middle class? If I recall correctly, there‚Ä¶ https://t.co/m1b5qjBe0E"
1519012948424814592,mrtphotog,Tue Apr 26 17:58:03 +0000 2022,-111.81549050000001,40.652283,@casual_BHC @CrankGameplays YES THANK YOUUUUüòÖü§ç Not enough people say it
1519012949972594689,_SaluteTheCakes,Tue Apr 26 17:58:03 +0000 2022,-115.223125,36.232915,How my revenge plays out in my head‚Ä¶but I‚Äôm not skilled enough
1519012950299877376,brettpmusic,Tue Apr 26 17:58:03 +0000 2022,-99.7936465,32.943759,@zachwelchmusic I be checking every now and then just in case‚Ä¶
1519012950790582274,StephenMacfar14,Tue Apr 26 17:58:04 +0000 2022,-75.8001415,45.248791,@margommanney Just leave things the fuck alone! üò°
1519012951717384194,bowmanspartan,Tue Apr 26 17:58:04 +0000 2022,-115.135165,36.0609645,"Yyuuppp! Not to mention, pretends to be a high correlation between the things you enjoyed grading in the way in whi‚Ä¶ https://t.co/qxLjcf1fjN"
1519012952233369604,tavaluuu,Tue Apr 26 17:58:04 +0000 2022,-95.44648649999999,29.838495,Neva .
1519012952531161090,ceetron,Tue Apr 26 17:58:04 +0000 2022,-77.0143985,38.898602999999994,"Yeah, üö©‚Ä¶ run."
1519012952875089921,wavyguy84,Tue Apr 26 17:58:04 +0000 2022,-81.39519200000001,28.5998155,@id6klub @Glitchy_Milk @SOLELINKS Orlando Nike store opens Thursday‚Ä¶
1519012953063936000,SWHSSWAT,Tue Apr 26 17:58:04 +0000 2022,-94.38443000000001,29.819911,Big thank you to @BigDaddysEatery for hosting our lunch today for the kids! Staff was very nice &amp; patient with our‚Ä¶ https://t.co/e9BMBzkFJD
1519012953550475265,MsReegisMcLaine,Tue Apr 26 17:58:04 +0000 2022,-87.732013,41.8335845,@MensUnderwear YES...   YES...   YES...     YOU ARE GOD'S GIFT TO WOMAN MY STRONG AND HANDSOME ADONIS...   KISSES A‚Ä¶ https://t.co/TvrInCwY2k
1519012955039444992,OfficialFBIAcct,Tue Apr 26 17:58:05 +0000 2022,-83.98685900000001,33.6639435,Im a hatin ass nigga fr üôèüèøüôèüèø
1519012955270037504,melroseplace_,Tue Apr 26 17:58:05 +0000 2022,-77.60468399999999,41.1179365,I know this weird bitch who requested me EIGHT TIMES getting mad af when she can‚Äôt see nun ü§£
1519012956213813249,SusanKilleen4,Tue Apr 26 17:58:05 +0000 2022,-82.170186,27.069032999999997,@NoLieWithBTC He never pays his bills. Looks like this will be a job for RNC campaign fund.
1519012956197068802,Sarah_Wyland,Tue Apr 26 17:58:05 +0000 2022,-118.38895751,33.84689572,Just posted a photo @ Pure Barre https://t.co/ceSPhG7fgV
1519012956381478912,KishorBlue2,Tue Apr 26 17:58:05 +0000 2022,-124.169452,40.7826235,@maddow Where is the @VP now?  ICU?
1519012957757210625,issaluis_,Tue Apr 26 17:58:05 +0000 2022,-118.26774850000001,33.894129,@_dreaaa04 lowkey lowkey between me and you i was kinda down üò≠üò≠
1519012957945958400,R_J_A_C_,Tue Apr 26 17:58:05 +0000 2022,-111.86096549999999,40.572455500000004,@JosiahGabeSmith üòÇ gotchu
1519012957258227713,HillandMarkes,Tue Apr 26 17:58:05 +0000 2022,-73.938142,42.8031345,Great sales meeting today fueled by some delicious MISSION BBQ! #missionaccomplished ü§§üëè‚òëÔ∏è https://t.co/RUAYF2K9g9
1519012959921610753,DeacPB,Tue Apr 26 17:58:06 +0000 2022,-84.2801945,34.073344000000006,"@RandPaul giving Spain, Mexico, and Russia the green light to attack the United States without consequence"
1519012959573340160,NWSSevereTstorm,Tue Apr 26 17:58:06 +0000 2022,-78.67883341,37.79004159,"Severe Thunderstorm Warning including Scottsville VA, Esmont VA, Lovingston VA until 2:30 PM EDT https://t.co/pQs2j7dGRJ"
1519012960164884482,whata_character,Tue Apr 26 17:58:06 +0000 2022,-83.804475,27.698681999999998,@signedbyG Chunky all day
1519012960227758081,Eric_0513,Tue Apr 26 17:58:06 +0000 2022,-98.5406515,29.417501,"@RichardR95 @maestroxv_ @MandalorianGe0 @RBReich @ninaturner So, you‚Äôre against capitalism? Weird flex, but ok ü§∑üèª‚Äç‚ôÇÔ∏è."
1519012960513019904,Jamaine56360333,Tue Apr 26 17:58:06 +0000 2022,-73.9685415,40.780709,@danilotequila U so hot wish we could vibe and I can taste some of that..
1519012961326714880,Dejan_Kovacevic,Tue Apr 26 17:58:06 +0000 2022,-79.9806895,40.431388999999996,@412potter @DKPghSports Dude!
1519012963130216448,Chicagosports09,Tue Apr 26 17:58:06 +0000 2022,-87.732013,41.8335845,"@pellepelle_10 I just saw that, but there are plenty of examples and u still want to argue against what I‚Äôm talking‚Ä¶ https://t.co/I2vf7zG0O0"
1519012963625185291,Peteyberger,Tue Apr 26 17:58:07 +0000 2022,-75.117998,40.0048655,@JaimsVanDerBeek Thank you for this...the hero we need
1519012963377631233,MinaStanAcc,Tue Apr 26 17:58:07 +0000 2022,-97.340149,32.656193,She said it herself. i will no longer be of existence. https://t.co/vHO8eKraCM
1519012964426297345,JadahParadox,Tue Apr 26 17:58:07 +0000 2022,-75.117998,40.0048655,"@cmcgrew84 So far‚Ä¶ the stepmom is at work, the dad is still home as far as she knows. Hope it stays that way. She h‚Ä¶ https://t.co/jjAPiFCVqX"
1519012964472303616,tmj_FLD_sales,Tue Apr 26 17:58:07 +0000 2022,-81.3509416,28.5950986,This #Sales job might be a great fit for you. Click the link in our bio to see it and more. Verizon Sales Consultan‚Ä¶ https://t.co/t2VLOTiIIF
1519012964522610688,Beary_oBugglet,Tue Apr 26 17:58:07 +0000 2022,-122.48910000000001,48.1986395,@gracefulkenna Yep agreed! Quite pretty! üòä
1519012965663469568,michealdossey,Tue Apr 26 17:58:07 +0000 2022,-106.632718,35.1170025,@elonmusk Elon understand this we are not a democracy.
1519012965785112577,tmj_pa_sales,Tue Apr 26 17:58:07 +0000 2022,-75.1652215,39.9525839,"Nervous to apply for a job like ""Specialty Pharmaceutical Sales Representative"" at Fresenius Medical Care? Apply ev‚Ä¶ https://t.co/tPYyfML9kh"
1519012966548520961,aka12144,Tue Apr 26 17:58:07 +0000 2022,-81.97270499999999,28.049601000000003,@gavinjohnadams @Twitter @NYSE Apparently wall street and shareholders don't like Elon
1519012966871535617,Erikfiles,Tue Apr 26 17:58:07 +0000 2022,-73.9487755,40.655138,Bring @POTUS45  back @elonmusk
1519012967722852352,bigwillyaz,Tue Apr 26 17:58:08 +0000 2022,-112.12467649999999,33.5528625,@daddyslil555 Plans in motion.
1519012967831986176,FroilandLynda,Tue Apr 26 17:58:08 +0000 2022,-75.3026865,40.078368499999996,@PopMathobela Film üé•
1519012967823650817,mhairdesignMike,Tue Apr 26 17:58:08 +0000 2022,-87.632496,41.883222,"My new tool #paulmitchell @ Chicago, Illinois https://t.co/WA9XvhEdHu"
1519012968192692229,SarahHall1975,Tue Apr 26 17:58:08 +0000 2022,-90.3458525,41.473233,@LovesTiki2 &amp; @EdTufexis  @michellemroz  et all are you here https://t.co/P0eYB4HZyIFind me
1519012969006338053,SimonCareers,Tue Apr 26 17:58:08 +0000 2022,-122.1430195,37.4418834,"Interested in a job in #PaloAlto, CA? This could be a great fit: https://t.co/yTDqyJvXQ9 #Marketing"
1519012969698537474,KareemRevived,Tue Apr 26 17:58:08 +0000 2022,-83.1738665,32.6782075,Ngl I know Megan as She-Hulk is going to be the most absurd thing I‚Äôve ever seen Marvel do.
1519012969564151808,tmj_sjc_labor,Tue Apr 26 17:58:08 +0000 2022,-121.8863286,37.3382082,"This job is now open at Kelly Services in San Jose, CA. Follow us and turn on mobile alerts to hear about jobs like‚Ä¶ https://t.co/JHy0U0M62A"
1519012970071674880,tmj_dfw_banking,Tue Apr 26 17:58:08 +0000 2022,-96.7962528,32.7863301,"Don't be shy. Score a job like ""Commercial Underwriting Program in Dallas"" at Comerica Bank by asking for referrals‚Ä¶ https://t.co/cXN4q6Wywt"
1519012970612678661,CowxrdsThrxne,Tue Apr 26 17:58:08 +0000 2022,-114.465155,42.561255,@Bloodstar2022 mutual.
1519012971288174593,pdub919,Tue Apr 26 17:58:08 +0000 2022,-82.45968362,35.56751709,We‚Äôve had a wonderful time here at The Cove for Pastor‚Äôs Conference this week. @ Billy Graham Training Center at th‚Ä¶ https://t.co/yO5oorMIbh
1519012971946471424,SandyEggoJoe,Tue Apr 26 17:58:09 +0000 2022,-117.0723185,33.120359,Souplantation would absolutely HIT right now.
1519012972194107393,AllHailAlejo,Tue Apr 26 17:58:09 +0000 2022,-81.37744599999999,28.4877075,If CTM relied on public support from Orlando and central Florida we would all still be struggling to cover over hea‚Ä¶ https://t.co/JLsULI0ZQH
1519012973733453829,LizWard37251359,Tue Apr 26 17:58:09 +0000 2022,-98.716992,35.3090465,@miss_sparkles11 Goodness I don't think I could I'd be biting peoples heads off at the service desk don't think it‚Ä¶ https://t.co/3STPZHTSnz
1519012973448032256,kushibo,Tue Apr 26 17:58:09 +0000 2022,-117.874032,33.617638,"@geoff_kooris @waitbutwhy Why not both? ‚ÄúOn the one hand, I vehemently disagree with those partisan rabble rouser‚Ä¶ https://t.co/CMcAQ7VLoz"
1519012974215712770,DeSeanB,Tue Apr 26 17:58:09 +0000 2022,-80.244984,36.087168500000004,"@CeeHawk I put Orton above EdgeThey can even be 1a. and 1b.Orton and Cena both joined the exact same year, both‚Ä¶ https://t.co/SHs4xuOSgz"
1519012975423766528,JoeyDeloria,Tue Apr 26 17:58:09 +0000 2022,-86.27053950000001,45.001180000000005,@MaggiePHardy I'm not ditching I have to many furkids friends here
1519012975524433920,carin__fischer,Tue Apr 26 17:58:09 +0000 2022,-77.0143985,38.898602999999994,One of the biggest idiots in DC...https://t.co/qh1Pi4eaq0
1519012975733919744,TheNerd831,Tue Apr 26 17:58:09 +0000 2022,-119.02516299999999,35.3469015,Its the not knowing that fucks w me
1519012977504051202,colinlord,Tue Apr 26 17:58:10 +0000 2022,-86.8932775,35.799183,"The last time I gave blood, I tested positive for loads of COVID antibodies.But I don‚Äôt know if they came from my‚Ä¶ https://t.co/E1gNfleTEg"
1519012977587929090,tanwarkml,Tue Apr 26 17:58:10 +0000 2022,-79.2725695,43.629311,@WholeMarsBlog @elonmusk He walked away from @OpenAI before
1519012977839644680,ROZEPOP,Tue Apr 26 17:58:10 +0000 2022,-75.77004099999999,42.746617,@total_slagg @joonstorm @bIondedtaylor @PopCrave @BHG He can't queerbait because he's said he's straight. He's not‚Ä¶ https://t.co/crzagkzl3h
1519012976250048515,TessaHowardTV,Tue Apr 26 17:58:10 +0000 2022,-76.1288105,43.052606999999995,"One of my favorite pieces this semester. This is why I do journalism. Stories like thisüíóNow, all 3 women are in c‚Ä¶ https://t.co/fbcCaexHsn"
1519012978150055946,certainlynotal,Tue Apr 26 17:58:10 +0000 2022,-76.30038250000001,40.0399505,Ben should try sitting in my office chair for 8 hours!(also switch salaries with me)
1519012978305245184,TonyDarnell1,Tue Apr 26 17:58:10 +0000 2022,-85.84122450000001,41.5728005,Vince Young.
1519012979018248192,alexesnikole,Tue Apr 26 17:58:10 +0000 2022,-83.099288,42.3527865,Taurus women are beautiful
1519012979433525249,abobbination,Tue Apr 26 17:58:10 +0000 2022,-83.804475,27.698681999999998,@shaunking No exceptions.
1519012980599529472,Luke_Calvert,Tue Apr 26 17:58:11 +0000 2022,-73.9685415,40.780709,Understand that this does happen‚Ä¶but I find it very hard to do!
1519012980758822913,Ehime_Ayeni,Tue Apr 26 17:58:11 +0000 2022,-80.2739375,43.147571,@promisepeace @instablog9ja I gave examples of the rich people I know. Please give your examples without assumption‚Ä¶ https://t.co/cibIdH62Cn
1519012980394016769,BetaPupAsher,Tue Apr 26 17:58:11 +0000 2022,-104.92209349999999,39.713563,I require belly rub and puppy snuggles for tummy Tuesday! üò§üê∂ https://t.co/etuqrvEuA4
1519012981677469696,kadFPS,Tue Apr 26 17:58:11 +0000 2022,-96.7617535,32.819858499999995,LIKE THE TWEET IDGAF IF YOU TARK OR NOT
1519012982054817792,AntonioILiranzo,Tue Apr 26 17:58:11 +0000 2022,-118.4119065,34.0207895,@MarshallFiction ‚úçüèΩ Page: https://t.co/8HUeJEx2q2üíª: https://t.co/IGajHDb9AJ
1519012982302253056,Hoopadudley,Tue Apr 26 17:58:11 +0000 2022,-117.585658,33.859093,@Hmrivera76 @murdock_buck @cmhughesmd @shannonrwatts @ABCNews4 People break laws every day. And people have excuses‚Ä¶ https://t.co/XlPOIBJTNl
1519012982436601860,moodav47,Tue Apr 26 17:58:11 +0000 2022,-86.791549,36.200008,"I don't like being hateful. However; IMO for one to identify as a D-RAT(especially now), you must be ignorant, stup‚Ä¶ https://t.co/r9bIjW5crs"
1519012983057252352,DerpyDergen,Tue Apr 26 17:58:11 +0000 2022,-118.4119065,34.0207895,"@andraconix But this is a peer reviewed scientific test. Why would conservatives ever believe it? Jesus commands them, not science. ü§∑"
1519012985435471872,Leahmo34,Tue Apr 26 17:58:12 +0000 2022,-88.5540415,30.3640485,@AshNateWanted @winmetawin @GinaKaus @bozzymnd @WookcJi @janetguy @adoreyou31 @CarlaJShepherd1 @GaymumLovesBL Thank you Ashley üòä
1519012986299506696,outdo0rsy,Tue Apr 26 17:58:12 +0000 2022,-71.7136165,42.2878525,#skincare Twitter help: not wearing sunscreen = cancer. Yet sunscreen = cancer. What brands are safe?
1519012986534383616,JohnSengbusch,Tue Apr 26 17:58:12 +0000 2022,-78.897667,42.7444105,@SnapFlow69 Just black and grey Reid? Nothing in white huh?
1519012986379243521,LemonOttawa,Tue Apr 26 17:58:12 +0000 2022,-75.7,45.4167,"Just posted a photo @ Ottawa, Ontario https://t.co/eJuhikznZG"
1519012986722996225,camthomascowger,Tue Apr 26 17:58:12 +0000 2022,-118.4119065,34.0207895,@CFBNerds Anyone who says they‚Äôre opposed to neutral site games has never been to OU/Texas. Absolutely incredible‚Ä¶ https://t.co/yZsoWH7yEZ
1519012987801120769,TheMattKnicks,Tue Apr 26 17:58:12 +0000 2022,-87.732013,41.8335845,@PRIMETIMEMESD1 Still no Midwest. üëÄüíú
1519012988035944450,FairyGodHimbo,Tue Apr 26 17:58:12 +0000 2022,-77.418002,39.4320365,@dredlifter @MooseMooter Well‚Ä¶if we all hit 235 simultaneously then I think that‚Äôs the sign for a proper meetup
1519012988665094145,robyfox2,Tue Apr 26 17:58:13 +0000 2022,-79.861034,35.1704985,@PeterScanavino We did!  And thank you!
1519012989273268231,cypress_soul,Tue Apr 26 17:58:13 +0000 2022,-75.117998,40.0048655,"@kamiron_ Sorry, I'll get upüö∂üèΩ‚Äç‚ôÇÔ∏è"
1519012989134856199,MikePfeiffer37,Tue Apr 26 17:58:13 +0000 2022,-91.6828545,41.976528,"Home for Sale at 1709 Wilson Ave SW in Cedar Rapids$148,000 | 2 Beds | 2 Baths | 1320 SQFThttps://t.co/ptSoZFxwxF‚Ä¶ https://t.co/ObCDf5Yn88"
1519012991177474049,DaninCarteret,Tue Apr 26 17:58:13 +0000 2022,-74.473067,40.4457045,"@whitemi5 What part of ""move up the ladder in the maintenance craft"" did u not understand, dopetroll? My next game‚Ä¶ https://t.co/30XLoagUsW"
1519012991420846080,Amazing75737030,Tue Apr 26 17:58:13 +0000 2022,-94.5592815,39.1000485,@machosscaliente What's that cock was in my mouth everyday got my ass percolating
1519012992150560771,Shane_Magness91,Tue Apr 26 17:58:13 +0000 2022,-97.552161,35.4828435,@TravisSkol Once every 3-4 weeks
1519012992851062792,tatiannaaelisee,Tue Apr 26 17:58:14 +0000 2022,-96.87995749999999,32.924548,I hate how men think they are emotionally intelligent because they nonchalant and don‚Äôt care. That actually means you are the opposite lmao.
1519012993115242496,JoeShow68347212,Tue Apr 26 17:58:14 +0000 2022,-71.02134,42.256124,"@Marie35396768 @OANN MEDIAüì¢-1Ô∏è‚É£Cause2Ô∏è‚É£EFFECT:The""king""vs.The FakeNewZ.Its not new. Analyze FACTS:2020 ELECTION‚Ä¶ https://t.co/EAdXRpu52d"
1519012993710841857,Adonighel,Tue Apr 26 17:58:14 +0000 2022,-84.433106,33.7671945,Monday. https://t.co/wxUz9ECtTM
1519012994960838656,michaelis4real,Tue Apr 26 17:58:14 +0000 2022,-80.52871300000001,35.652669,Am gonna rant like hell if the stinking hoodie draft doubs. Dude gives me Harry vibes. Big wr with no speedü§¨
1519012995459919873,ThePostman68,Tue Apr 26 17:58:14 +0000 2022,-80.63113150000001,35.4019815,Hey!!!Let's talk racing on the @diecast_b  Facebook Live Page....RIGHT NOW!!!!
1519012995719868417,downix,Tue Apr 26 17:58:14 +0000 2022,-122.296281,47.119285500000004,Why do people jump in to support a claim when they don't even know what the claim is?
1519012996336390144,thatTGreenman,Tue Apr 26 17:58:14 +0000 2022,-149.7587945,61.2350425,@ernieball Quilt!
1519012995891871747,didlilo,Tue Apr 26 17:58:14 +0000 2022,-79.42086499999999,38.003375500000004,Berleezy and Dashie are too fine https://t.co/bYEdVhdB4D
1519012996927967233,boobielaw77,Tue Apr 26 17:58:15 +0000 2022,-86.5851,36.307425,"""Look here. We can win. But the Titans still got Derrick Henry"" -Matt Ryan 2022 probably"
1519012997733224448,PT_CSCS_KeithH,Tue Apr 26 17:58:15 +0000 2022,-79.08959,33.842367499999995,Vote for FREE every 24 hours !! Thank you! https://t.co/de5HdP2tF9 #fitness #workout #health #muscle https://t.co/AIeRhkwxfX
1519012998307790852,that_dash,Tue Apr 26 17:58:15 +0000 2022,-76.7046315,39.154153,Yo @Expedia your app sucks. I almost got stuck in Baltimore for 24 hours. Now I‚Äôm out an extra $200. Would like to‚Ä¶ https://t.co/Q5j8uUacpz
1519012999176019969,theonlyjmvx,Tue Apr 26 17:58:15 +0000 2022,-73.9685415,40.780709,Happy 42nd Birthday to @channingtatum! 10 years ago today I retaught him &amp; @jennadewan the choreo to the ‚Äú‚ÄòTil the‚Ä¶ https://t.co/iAZriVFUbl
1519013000992235520,BisonBrewski,Tue Apr 26 17:58:15 +0000 2022,-71.054857,42.428694,"@mikelarsen55 @ProFootballTalk Pats, more times than not he didn't have a lot to work with but he made it work.A t‚Ä¶ https://t.co/uwwpNsTbQC"
1519013001726205955,schultzmedia,Tue Apr 26 17:58:16 +0000 2022,-74.65934899999999,40.372875,@JasonKander I‚Äôm gonna have that stuck in my head all day now. Haha
1519013002879676417,Romeyyy_,Tue Apr 26 17:58:16 +0000 2022,-76.74663849999999,38.9637825,I said why don‚Äôt you be laying a towel down her ass get to talking bout some I just be in the moment smh you and this short term thinking üò§üò≠
1519013003030577158,saucyjustinn,Tue Apr 26 17:58:16 +0000 2022,-86.611411,34.7060265,I‚Äôll be out and about with my family and random people I‚Äôve never seen in my life will come up to me and say ‚ÄúAre y‚Ä¶ https://t.co/wXBFTHoFK2
1519013004381241345,mercurialblonde,Tue Apr 26 17:58:16 +0000 2022,-95.770195,36.0393055,@T0PRACK @aijukaT97 @Celoti2381 @UtdOptimist @EvkProductions It's like comparing De Bruyne to Jorginho. Different r‚Ä¶ https://t.co/5p2x8S03Ee
1519013005136044032,AntonioILiranzo,Tue Apr 26 17:58:16 +0000 2022,-118.4119065,34.0207895,@Poetryman551 ‚úçüèΩ Page: https://t.co/8HUeJEx2q2üíª: https://t.co/IGajHDb9AJ
1519013005631049736,mistermojo,Tue Apr 26 17:58:17 +0000 2022,-91.8993,30.2736,"Just posted a photo @ Breaux Bridge, Louisiana https://t.co/nVtHAVqkVY"
1519013005744246784,tmj_TX_transp,Tue Apr 26 17:58:17 +0000 2022,-97.4974838,25.9017472,"O'Reilly Automotive is hiring in #Brownsville, TX! Read about our latest #Transportation job opening via the link in our bio: Parts Delivery"
1519013005953933312,tmj_roa_labor,Tue Apr 26 17:58:17 +0000 2022,-79.5153773,37.3002291,"Interested in a job in #Bedford, VA? This could be a great fit. Click the link in our bio to apply: Production Asso‚Ä¶ https://t.co/hJClz59WbU"
1519013006050484224,PHARES_1,Tue Apr 26 17:58:17 +0000 2022,-90.011008,29.982601,"@tasiaamari For me, I just got to mute them. Because everything they say, do Etc just reminds me of how weak they are"
1519013006394335233,Tee_Jay_26,Tue Apr 26 17:58:17 +0000 2022,-122.4269055,47.0895845,@GovGianforte @SteveDaines @RepRosendale @MTAGKnudsen Sounds vaguely familiar... Just can't seem to place who he wo‚Ä¶ https://t.co/fxcnK5ydUp
1519013007719690240,tmj_SC_secure,Tue Apr 26 17:58:17 +0000 2022,-79.7625625,34.1954331,"Career tip for landing jobs like ""Security Officer Full Time"" in Florence, SC. Go on informational interviews. The‚Ä¶ https://t.co/PH2fsJxtYG"
1519013008067997696,INgoatqueen,Tue Apr 26 17:58:17 +0000 2022,-86.9299805,40.459081499999996,29 weeks down only 11 to go as long as little man stays put until 40 weeks üò¨ oh I can‚Äôt wait to meet this little guy
1519013008692985856,Bizzlite,Tue Apr 26 17:58:17 +0000 2022,-73.921,41.07979,"#AmenToThatüíØ‚öñüëèüçÄ‚ù§üôå Tuesday, 4/26/22.... @ South Nyack, New York https://t.co/NpjzS1Esbj"
1519013008915247105,Tall__Money,Tue Apr 26 17:58:17 +0000 2022,-76.60395650000001,39.1695855,Walked inna mall w 10 thousand on me I don‚Äôt see nun I want
1519013008860606464,erincorrie,Tue Apr 26 17:58:17 +0000 2022,-121.83373,39.747037,Apparently rules apply to everyone except @RepCawthorn
1519013008986488834,JaakeNBaake,Tue Apr 26 17:58:17 +0000 2022,-84.51578599999999,33.846765000000005,I‚Äôm hysterically laughing at the people who think this is real
1519013008374177798,MsJudiesScience,Tue Apr 26 17:58:17 +0000 2022,-97.1691565,31.547449,"One thing about them Bulldogs, we're going to compete anywhere we go...  #BulldogPride @marlin_high @MarlinISDTX https://t.co/QTKGK3LS4c"
1519013008479080449,1_MegDavis,Tue Apr 26 17:58:17 +0000 2022,-80.11290349999999,26.533486,@BryanMRussell @RoyalPalm_RPS @Dr_Corcoran @mgbongiovi @StangoTonina @JamilahStJuste @pbstrulymatters Go Matthew!!!!
1519013009619836930,punkbynaturee,Tue Apr 26 17:58:18 +0000 2022,-87.732013,41.8335845,the way my boss texted me all weekend and i just ‚ú®ignored‚ú® her üíÄ
1519013011087937537,Shawzzzy007,Tue Apr 26 17:58:18 +0000 2022,-81.2487865,42.9488405,@najib_kadri AM34 for two? https://t.co/tiJJM9iN89
1519013011670937601,DerrikMorales,Tue Apr 26 17:58:18 +0000 2022,-83.804475,27.698681999999998,@18queen__ Wtf kind of tits are those?
1519013011628900352,rwh11806,Tue Apr 26 17:58:18 +0000 2022,-85.6148235,38.284234,@RobertRichardsy @bell4ky Republicans say they are for small government but have continued to entrench them selves‚Ä¶ https://t.co/3BGFZoKHsZ
1519013013604372481,rumbleseatbar,Tue Apr 26 17:58:18 +0000 2022,-72.5702365,42.171347499999996,"Just heard the Massachusetts Senate, like the House before it, will be passing gaming legislation that completely f‚Ä¶ https://t.co/tIzVnH8Fuj"
1519013014283993091,PhilGElmore,Tue Apr 26 17:58:19 +0000 2022,-82.6694675,40.365159500000004,@tony_pike15 sorry for your loss. Prayers!
1519013014246146048,_slouise,Tue Apr 26 17:58:19 +0000 2022,-83.1738665,32.6782075,I want to fly down!!
1519013016074919938,k3NG2_,Tue Apr 26 17:58:19 +0000 2022,-90.011008,29.982601,If you EVER see me happy just be happy for me‚Ä¶ I deserve it‚ÄºÔ∏è
1519013016440029184,JaCorey_theGrea,Tue Apr 26 17:58:19 +0000 2022,-100.453089,31.4405225,Made 100 at 23 tryna make a million by 33 lol.
1519013015718440965,Lorinelms,Tue Apr 26 17:58:19 +0000 2022,-90.007789,34.942181500000004,Our animals are happy that the sun is out today after being stuck inside all day yesterday because of the rain.‚Ä¶ https://t.co/kovAJpK4tr
1519013017396162560,BMGriff007,Tue Apr 26 17:58:19 +0000 2022,-77.60468399999999,41.1179365,THIS RIGHT HERE IS üí∏üí∏üí∏
1519013017836560388,LilVampG,Tue Apr 26 17:58:20 +0000 2022,-79.2725695,43.629311,the only pain i feel is when i be tripping over drama that i wasn‚Äôt even a part of like ouch ‚ò†Ô∏è
1519013017869950976,MunBagri,Tue Apr 26 17:58:20 +0000 2022,-122.917508,49.2067515,"I know I've said this before, Panini's &amp; Wraps ordered at Coffee shops are only served in 2 temperature options:1‚Ä¶ https://t.co/po5B7MCotl"
1519013018004344832,TheBrandForAll,Tue Apr 26 17:58:20 +0000 2022,-95.36488,29.76614,"When I tell you the atrium at @posthtx made the ultimate backdrop for an epic @runwayhouston fashion show, that is‚Ä¶ https://t.co/GojWDiLQg1"
1519013019782688769,Rell_GetBuckets,Tue Apr 26 17:58:20 +0000 2022,-76.148999,39.4977025,"@Pattytrill Like bro as a hooper, basketball is supposed to be our escape from all the stress. He just don‚Äôt like basketball."
1519013019644268548,CrispinHaskins,Tue Apr 26 17:58:20 +0000 2022,-70.1004,41.2815,"Just posted a photo @ Nantucket, Massachusetts https://t.co/S0JRVnPCE2"
1519013020336328704,Ynasty2318,Tue Apr 26 17:58:20 +0000 2022,-77.4589895,43.056599500000004,@Krulltruistic @TheBillsGuys For real
1519013021137661952,TFAbaseball,Tue Apr 26 17:58:20 +0000 2022,-81.3677725,28.501678499999997,#RoyalsBaseball ranked #22 in the country according to Perfect Game USA new up to date rankings!
1519013021888270336,Brownsugaknb,Tue Apr 26 17:58:20 +0000 2022,-79.418222,36.607196,Shelia guilt starting to show #BoldandBeautiful
1519013022806728705,OW_Chicharito,Tue Apr 26 17:58:21 +0000 2022,-97.28591349999999,32.7799665,"@nerobonk @TorontoDefiant @TD_Canada You can go by yourself but at your age, I really recommend going with at least‚Ä¶ https://t.co/kuuAWOEB1j"
1519013023750529026,_odalis_garcia,Tue Apr 26 17:58:21 +0000 2022,-95.27599000000001,29.4248245,"i am that extra ass aunt, and??"
1519013023792390153,MustBeSeven,Tue Apr 26 17:58:21 +0000 2022,-84.3064885,33.9430725,TWO WEEKS!!! TWO WEEKS UNTIL TOUCH DOWN CO FOR BILLY
1519013023784095744,bushy2wavvey,Tue Apr 26 17:58:21 +0000 2022,-83.1738665,32.6782075,"@Jody_McFly I‚Äôve been tired of Chuck, Kenny &amp; Shaq. Love Ernie though. I know they‚Äôre ‚Äúentertaining‚Äù. Hit is clear‚Ä¶ https://t.co/fJ5eMgMC9Z"
1519013022722936832,jade_desere,Tue Apr 26 17:58:21 +0000 2022,-86.1429225,39.7795625,All new #teenmom2 tonight! Who‚Äôs watching and live tweeting with me!? @TeenMom @MTV https://t.co/BxJTwI2UNt
1519013025184989185,arielleimhoof,Tue Apr 26 17:58:21 +0000 2022,-98.5406515,29.417501,"i have 3 drawers full of empty (washed) kombucha bottles and idk if it‚Äôs because i‚Äôm a virgo sun, a gemini moon, or abandonment issues ü§™"
1519013026132893698,CMTubbs,Tue Apr 26 17:58:21 +0000 2022,-93.3613205,46.441860500000004,@Ryan_Boser Same.
1519013026615156738,JoeyShacklef0rd,Tue Apr 26 17:58:22 +0000 2022,-80.087032,42.110703,The funny thing about the algorithm is I've had to mute accounts like Ben's to stop seeing political takes I'm not‚Ä¶ https://t.co/kD73JYJCYG
1519013026732679168,APOCrunch,Tue Apr 26 17:58:22 +0000 2022,-78.74736899999999,42.7677015,@Torrid woke up this morning and chose violence ü§£ https://t.co/EcY0KHXjRt
1519013027194060801,Mr_Basketball15,Tue Apr 26 17:58:22 +0000 2022,-95.4893208,29.73674403,Lost File in Houston. @ Kamp Houston https://t.co/MXCi8o6ODN
1519013027743506436,MirandasRandom,Tue Apr 26 17:58:22 +0000 2022,-76.84886449999999,38.9265495,Why would y‚Äôall lie like that?
1519013027726696448,ShravanMalaney,Tue Apr 26 17:58:22 +0000 2022,-86.7679715,36.120422000000005,Homegirl has to put with my my antics for sports pretty much all year for hours on-end; the least I can do is suppo‚Ä¶ https://t.co/ajuSZTYkFW
1519013027986776067,JamesNe91452633,Tue Apr 26 17:58:22 +0000 2022,-96.835249,33.1501395,@lifeofahurdler Lol I feel you!
1519013028280238081,GMOsbad,Tue Apr 26 17:58:22 +0000 2022,-120.882482,47.273022,Vegan compassion for peace.
1519013028615921667,JohnPot259,Tue Apr 26 17:58:22 +0000 2022,-80.926628,33.6311395,@BellaFilAm @Rosemar06585176 @PJOU812 @Gracie4USA @BrianHPatriot76 @thyroid_mary @treesforTrump @StellaA72142431‚Ä¶ https://t.co/xiWLjXJt2z
1519013028410261504,TDRPlans,Tue Apr 26 17:58:22 +0000 2022,-122.2956495,37.83855,I wish I could go in üò≠ https://t.co/B6z3MOKpDY
1519013029106573312,MrsSlimeyouout,Tue Apr 26 17:58:22 +0000 2022,-75.22698600000001,43.119679500000004,I love my hairstylist ü•∫
1519013029433602049,LuisMiranda4D,Tue Apr 26 17:58:22 +0000 2022,-115.135165,36.0609645,"Life hack for meeting people at #NAB2022, get your nails done. Literally everyone will either comment on them or th‚Ä¶ https://t.co/DEyWwpvJQF"
1519013030285172742,mtzg_neida,Tue Apr 26 17:58:22 +0000 2022,-82.91621749999999,42.672326999999996,Yesterday while we were at the mall we went to NTVES Shop
1519013030297804800,lawrenceluksha,Tue Apr 26 17:58:22 +0000 2022,-83.804475,27.698681999999998,‚ÄúShouldn‚Äôt they leave it up so they don‚Äôt erase history?‚Äù
1519013029873995776,therese_dodd,Tue Apr 26 17:58:22 +0000 2022,-111.893271,40.765804,Let‚Äôs eat! https://t.co/zbCoqKvfeM
1519013030343761921,AntonioILiranzo,Tue Apr 26 17:58:22 +0000 2022,-118.4119065,34.0207895,@GhostAshish ‚úçüèΩ Page: https://t.co/8HUeJEx2q2üíª: https://t.co/IGajHDb9AJ
1519013032134914048,mtzg_neida,Tue Apr 26 17:58:23 +0000 2022,-82.91621749999999,42.672326999999996,It‚Äôs this little shop that is Native American &amp; sell handmade things
1519013032424353793,RedTreeMike,Tue Apr 26 17:58:23 +0000 2022,-79.86566350000001,40.133265,@TheBurgundyZone @TheKarnov Umm ü§î because they know aren‚Äôt gonna pay him so if we can get something better than a c‚Ä¶ https://t.co/GtmRcFQy5B
1519013032545984513,rps57,Tue Apr 26 17:58:23 +0000 2022,-78.657837,35.8439815,The replies are golden
1519013032688508928,poncho_nevarez,Tue Apr 26 17:58:23 +0000 2022,-100.4806255,28.7131445,Abbott and Biden working together. Like Tango and Cash around here.
1519013033393233920,mtzg_neida,Tue Apr 26 17:58:23 +0000 2022,-82.91621749999999,42.672326999999996,We got a few French bracelets while we were there
1519013033892212737,Don3locco,Tue Apr 26 17:58:23 +0000 2022,-118.4119065,34.0207895,I‚Äôm only easy for fine hoes that ain‚Äôt corny or boring ü§£
1519013034496299009,mtzg_neida,Tue Apr 26 17:58:23 +0000 2022,-82.91621749999999,42.672326999999996,We told the girl how much we loved the store and that it became one of our favorites
1519013034915631105,prestonmarsha19,Tue Apr 26 17:58:24 +0000 2022,-118.222017,33.8849685,@KirwinReif66 I'll stay as long as it's free! I can choose to post or not.
1519013034924163072,tjs271,Tue Apr 26 17:58:24 +0000 2022,-94.326622,37.169692,@Citation_Needs @OldGenderQueer @rmccown @JoeBrunoWSOC9 @StolpWSOC9 @JPaulWSOC9 @wsoctv Good deal
1519013035817545730,mtzg_neida,Tue Apr 26 17:58:24 +0000 2022,-82.91621749999999,42.672326999999996,She gave us a free French bracelet üò≠
1519013035876265993,speshalteacher,Tue Apr 26 17:58:24 +0000 2022,-74.50896900000001,39.446196,"@natasharts Yes, that's what I will have to do for 10 days."
1519013035263811584,rachelbruns,Tue Apr 26 17:58:24 +0000 2022,-87.91646,43.03962,‚ÄúEven though things aren‚Äôt perfect‚Ä¶your impact is a seed. You don‚Äôt want your impact to be a boulder‚Ä¶pure impact is‚Ä¶ https://t.co/1kUy3VCVV7
1519013036937388032,mtzg_neida,Tue Apr 26 17:58:24 +0000 2022,-82.91621749999999,42.672326999999996,"And she gave us a tip for the amethyst gem stone we got, which she was shocked that we knew about it"
1519013037272977408,ramen_maiden666,Tue Apr 26 17:58:24 +0000 2022,-104.92209349999999,39.713563,"Logo I did for a customer/friend! Shirts in the pit is on IG, check them out, they post cool shirts they find in t‚Ä¶ https://t.co/EmzsbOlgX0"
1519013038053023746,mtzg_neida,Tue Apr 26 17:58:24 +0000 2022,-82.91621749999999,42.672326999999996,I love learning about other cultures and how similar we all are ü•∫
1519013038296387584,ChrisHiers,Tue Apr 26 17:58:24 +0000 2022,-83.1738665,32.6782075,Dow is yuck today.
1519013038669533185,PonchSes,Tue Apr 26 17:58:24 +0000 2022,-111.82938,41.738358500000004,@IsTheSickest What else?
1519013042314526720,_UrSoREPLACED,Tue Apr 26 17:58:25 +0000 2022,-96.7617535,32.819858499999995,Y‚Äôall think going solar is worth it?
1519013042427731970,DeeJayDaveK,Tue Apr 26 17:58:25 +0000 2022,-79.2725695,43.629311,GAME 6 baby! See you on Thursday!
1519013042511437824,Mistad00d,Tue Apr 26 17:58:25 +0000 2022,-123.1224015,44.065621,@YoungHustla706 @TyLuckyOfficial I missed the space we talking about Mac Dre? https://t.co/dL3m0Gtuih
1519013045040607232,AuggieSmith,Tue Apr 26 17:58:26 +0000 2022,-118.4119065,34.0207895,@horsehokey @iBrettmypants The only way to stop a bad guy with a gun is a good 12-year-old third baseman with a bat
1519013044965330944,likeamywithanR,Tue Apr 26 17:58:26 +0000 2022,-77.0143985,38.898602999999994,i‚Äôm tired of receiving emails flagged with ‚Äúhigh importance‚Äù over matters that are decidedly NOT highly important‚Ä¶ https://t.co/D7Y0WHhCHs
1519013045543968768,RobertZawodski,Tue Apr 26 17:58:26 +0000 2022,-117.365638,33.202946,... come on yO'... U still can't cry fire in a crowded theater &amp;\or...@Tweets of insurrection¬°!
1519013045997084672,MiaOuterspace77,Tue Apr 26 17:58:26 +0000 2022,-80.02511050000001,40.52118900000001,@Nat_m0_rr1 Because Harry said he would not come back to the UK unless Meghan is made Queen.
1519013046554873858,AmplifySafety,Tue Apr 26 17:58:26 +0000 2022,-73.9487755,40.655138,"The key to making the City safe is getting illegal guns off-the-streets. Well done, @NYCMayor!"
1519013046907199490,finsane86,Tue Apr 26 17:58:26 +0000 2022,-83.804475,27.698681999999998,@Justin4ocho Cameron Wake. Suh. Xavier Howard. Christian Wilkins. Jarvis Landry. All better than the garbage NYJ‚Ä¶ https://t.co/7xEKlnPVzJ
1519013047125352459,mike_moroski,Tue Apr 26 17:58:26 +0000 2022,-84.53981250000001,39.137038000000004,"After 93 AMAZING issues, ASM resets. So exciting. 1Ô∏è‚É£üï∑ https://t.co/66kfu4CzvC"
1519013048119353346,pjune61,Tue Apr 26 17:58:27 +0000 2022,-86.2625855,43.161903,"@HeyCHOFF What.... and you didn't ask me to join you? Choff, I am greatly disappointed!! ü§£"
1519013048283017222,evan_just_evan,Tue Apr 26 17:58:27 +0000 2022,-79.2725695,43.629311,been better
1519013048412823553,ritamary6,Tue Apr 26 17:58:27 +0000 2022,-117.253906,33.045009,"@c_grutter @lindyli What does banning math books, intimidating voters, gerrymandering election districts etc have to do with LGBTQ issues?"
1519013048899436544,tmj_har_transp,Tue Apr 26 17:58:27 +0000 2022,-72.6627507,41.7480737,"If jobs with titles like ""Tractor Trailer Driver"" sound appealing to you, follow us to hear about these types of op‚Ä¶ https://t.co/Wq13ML3sCA"
1519013050153537536,tmj_sac_pharm,Tue Apr 26 17:58:27 +0000 2022,-121.2746178,38.6725516,"Can you recommend anyone for this Pharmacy Technician - Retail Store job in #CitrusHeights, CA? Click the link in o‚Ä¶ https://t.co/WIhOTEtRV2"
1519013050803757056,TC_daSuperstar,Tue Apr 26 17:58:27 +0000 2022,-95.44648649999999,29.838495,@Shalikjay No profit will be accepted in his home town!
1519013051495817219,nickp421,Tue Apr 26 17:58:28 +0000 2022,-73.0465945,40.840722,Sales is fun especially when you close a $6k sponsorship lead from a sign you saw at the golf course.
1519013051185344512,tmj_IA_secure,Tue Apr 26 17:58:27 +0000 2022,-91.6656232,41.9778795,"Build a career in your community! We‚Äôre hiring in #CedarRapids, IA. As a Security Officer - Department of..., you w‚Ä¶ https://t.co/yvZYRV6hdO"
1519013051634126848,LevinsonArwin,Tue Apr 26 17:58:28 +0000 2022,-115.223125,36.232915,Magic üå∑
1519013052133294080,spacejam4900,Tue Apr 26 17:58:28 +0000 2022,-75.117998,40.0048655,Let‚Äôs try this sleep shit again
1519013052238098432,Hakeem__13,Tue Apr 26 17:58:28 +0000 2022,-118.1567105,33.809171500000005,Need one of them Arab owners fr
1519013052439482368,J_Scott_,Tue Apr 26 17:58:28 +0000 2022,-79.6117205,44.1130945,I actually thinking ‚ÄúToronto Metropolitan University‚Äù perfectly captures what the artist formerly known as Ryerson‚Ä¶ https://t.co/w8doLx8SiX
1519013053169389571,niamommie,Tue Apr 26 17:58:28 +0000 2022,-77.0908695,38.81738,@_UptownJessica Bet that üôåüèæ‚ù§Ô∏è
1519013053223870466,Raffegeau,Tue Apr 26 17:58:28 +0000 2022,-82.985772,39.9946835,I‚Äôm at a bizzare point in my adult life where I‚Äôm about to make a very serious career decision based on a middle-sc‚Ä¶ https://t.co/JEVPASSGye
1519013054851264512,I_Am_Turton,Tue Apr 26 17:58:28 +0000 2022,-81.578304,28.418797,I got the front seat at Space Mountain. Today is my day ü•≥ #disney
1519013055178452992,TalkwithVikas,Tue Apr 26 17:58:28 +0000 2022,-79.7595915,43.724971,As I am living in canada üá®üá¶ and want to invest more in #indiaüáÆüá≥ (Fastest Growing #Economy)My concern is There is fe‚Ä¶ https://t.co/PhSMQjdkk9
1519013056541515786,Alexisssss_e,Tue Apr 26 17:58:29 +0000 2022,-75.117998,40.0048655,Watching a father &amp; daughter bond  has to be the most precious thingü•π
1519013056940023809,TalkwithVikas,Tue Apr 26 17:58:29 +0000 2022,-79.7595915,43.724971,"I appreciate lots of government initiatives including (PLI schemes,MSME,Asset Monetization any many more) under‚Ä¶ https://t.co/Y0LSKhXA37"
1519013058932199424,CernaML,Tue Apr 26 17:58:29 +0000 2022,-118.4119065,34.0207895,@IKnowHimMan @marlisjun Coming from someone hyped for an FPS starring action figures.But cant expect any less fro‚Ä¶ https://t.co/gStjL1T1l5
1519013059464818688,TitusNation,Tue Apr 26 17:58:29 +0000 2022,-118.4119065,34.0207895,It was South Carolina‚Ä¶They did
1519013060379394050,RAIMAGE,Tue Apr 26 17:58:30 +0000 2022,-80.1698025,25.9356415,My social meter is drained but I want to keep tweeting
1519013060765270017,Josueluap,Tue Apr 26 17:58:30 +0000 2022,-86.40961,35.84742,I already know who fake and who real I just play along...
1519013061398605829,DaveFultonWrang,Tue Apr 26 17:58:30 +0000 2022,-80.8467855,35.209058999999996,@hanklee89 Sky turned black in southeast Charlotte and a monsoon swept thru. Sunny again now.
1519013060756746240,TylerGilroy3,Tue Apr 26 17:58:30 +0000 2022,-122.2327535,47.565392,First Varsity start behind the dish! Defensively zero past balls to help Even Otte throw a shutout. Offensively 2/2‚Ä¶ https://t.co/jQa5YUnkd2
1519013061734060032,September5Virgo,Tue Apr 26 17:58:30 +0000 2022,-77.0143985,38.898602999999994,@Tiff_Tiff_Here @_Da_Seducer All around üòÇüòÇ you just haven‚Äôt ran into someone like me yet ü§ó
1519013061696307203,Francessca___,Tue Apr 26 17:58:30 +0000 2022,-73.9685415,40.780709,"You can pretend you don‚Äôt miss me, pretend you don‚Äôt care.All you want to do is kiss me üòò https://t.co/Ia9yMrY6Fw"
1519013062656802817,Chicagosports09,Tue Apr 26 17:58:30 +0000 2022,-87.732013,41.8335845,@ShaunV78 @KnightsBaseball I thought kid batted LH.
1519013063990874112,AmicusLegis,Tue Apr 26 17:58:31 +0000 2022,-80.18183450000001,38.9201425,@cathworkingmom @SlaggitySlag @sphericaltime @theladykatie choosing to carry to term and have the child is not any‚Ä¶ https://t.co/EjVBTpfbfp
1519013064296873986,Miossi6,Tue Apr 26 17:58:31 +0000 2022,-77.0143985,38.898602999999994,4.26 1:55PTUSUPP BODYSURFACEDP/MY CTOSUPP TWICEP/MY HEALTHRETAINING MY HEADS-&gt;GROWING INTIMIDATIONINTO‚Ä¶ https://t.co/HPxBy0IBXq
1519013064607252480,AlFjerstad,Tue Apr 26 17:58:31 +0000 2022,-93.3613205,46.441860500000004,@AP But Joey did kiss her a couple of weeks ago. I would say that is a CLOSE CONTACT
1519013064863014912,designs_diverse,Tue Apr 26 17:58:31 +0000 2022,-80.649699,28.117874,"So I'm wondering if @elonmusk buying Twitter was a good idea.ü§îOnly time will tell, I hope it was a good idea on h‚Ä¶ https://t.co/CQ0issoD7w"
1519013065999757312,TNSenateDems,Tue Apr 26 17:58:31 +0000 2022,-86.791549,36.200008,Sen. Jeff @Yarbro says Gov. Bill Lee‚Äôs proposed school funding formula ignores the biggest problem facing Tennessee‚Ä¶ https://t.co/I98iUiReBj
1519013068486832129,JesusECast,Tue Apr 26 17:58:32 +0000 2022,-104.789327,38.8885185,@PLeg66 Not for long some lawyer somewhere will figure out the scheme.The one we all know already
1519013069069897728,Rdubbles,Tue Apr 26 17:58:32 +0000 2022,-79.861034,35.1704985,@ian693 @Mikeps69_NFL fresh as his new fade he got this morning
1519013068361113602,IntentToDecay,Tue Apr 26 17:58:32 +0000 2022,-80.558851,40.641563500000004,"ITDs alternative name is ""F√ºhk Ny√ºggyt 8000"" in case you didn't know. Were like power man 5000 or whatever but like‚Ä¶ https://t.co/DYDuMQ0nPT"
1519013069711683584,mishii_smallz,Tue Apr 26 17:58:32 +0000 2022,-79.2725695,43.629311,Yeah imma son you after
1519013069392781313,HumboldtLlc,Tue Apr 26 17:58:32 +0000 2022,-119.30660750000001,37.2691755,Another baller...happens to be the sister of baller #1 https://t.co/yjWj4PSmVr
1519013070642712576,babygirlkyla95,Tue Apr 26 17:58:32 +0000 2022,-115.223125,36.232915,@honeyhavenxo come to me üò≠üò≠üò≠
1519013071087357962,Chocobo_Pie,Tue Apr 26 17:58:32 +0000 2022,-71.0887125,42.3136695,@taenthus7ast Let me live
1519013071343210499,HagPhotos,Tue Apr 26 17:58:32 +0000 2022,-89.2665075,39.7393005,I peeked my head into a preK classroom I've subbed in on my way to a different room. I was treated like an A-list c‚Ä¶ https://t.co/bjDb80sJm2
1519013071649398784,daveyb0072,Tue Apr 26 17:58:32 +0000 2022,-71.1486405,41.6861005,@smars319 @mikey2gunzz I can tell!!!
1519013072022781953,kbsorlien,Tue Apr 26 17:58:32 +0000 2022,-93.389864,41.938228499999994,@ArtValley818_ They both ugly?
1519013072693645313,ZmanLV,Tue Apr 26 17:58:33 +0000 2022,-115.0611275,36.184754,"@RoArquette @JoyceWhiteVance Also, Mexico would like a word..."
1519013073360674820,Brian904Realtor,Tue Apr 26 17:58:33 +0000 2022,-81.61250849999999,30.0942515,"@JustB_510 I'm not familiar with him. I like TCU and BYUs coaches, but his resum√© seems impressive enough. Tough sh‚Ä¶ https://t.co/KRAYHKmrCN"
1519013074170130432,ahsilla82,Tue Apr 26 17:58:33 +0000 2022,-121.311582,44.059938,Just got my library card. Im very excited about this
1519013075264802817,kiseki_sama__,Tue Apr 26 17:58:33 +0000 2022,-118.167272,33.804261499999996,yep‚Ä¶‚Ä¶‚Ä¶‚Ä¶‚Ä¶.. unfortunately this is the world we live in.
1519013075579555840,MasonKernMedia,Tue Apr 26 17:58:33 +0000 2022,-99.6809025,41.500729500000006,High praise for the former @DogPoundBball product üèÄ @AuroraHuskies @SportsANR
1519013076087062528,bcpaul928,Tue Apr 26 17:58:33 +0000 2022,-79.8317685,40.2897985,The XFiles explains what‚Äôs in play‚Ä¶https://t.co/XcyAvnIFOh
1519013078804881408,__heartshaped__,Tue Apr 26 17:58:34 +0000 2022,-93.2620465,44.9706105,imagine even liking elon musk lol
1519013079706652672,TwoxJays,Tue Apr 26 17:58:34 +0000 2022,-95.99017549999999,30.083158,Is it not his money?
1519013079991865344,young_mirrrr,Tue Apr 26 17:58:34 +0000 2022,-75.117998,40.0048655,I spoke to one customer today and the day almost over..
1519013077902974976,imoalfy,Tue Apr 26 17:58:34 +0000 2022,-118.49672,34.01679,"Sometimes, I say stuff without thinking. Full set link in bio. https://t.co/RQYBUEJ3xG"
1519013080210055170,KIR_bigg50,Tue Apr 26 17:58:34 +0000 2022,-95.44648649999999,29.838495,Bruh‚Ä¶This is not funny yet HILARIOUS at the same time
1519013080742567936,didur_greg,Tue Apr 26 17:58:35 +0000 2022,-122.81848600000001,49.111519,@SharonT20519250 May not be allowable but definitely encouraged.
1519013079840927744,nmbernard,Tue Apr 26 17:58:34 +0000 2022,-78.74736899999999,42.7677015,"Isaiah Likely, our local @BuffaloBills broadcast has you at the #3 TE @DaGorilla4 üôåüèºüëåüèºüêìBuffalo is a wonderful pl‚Ä¶ https://t.co/ijFkK2luOT"
1519013081279602692,SparksMiller14U,Tue Apr 26 17:58:35 +0000 2022,-87.80754,41.52157699999999,Highlight reel from this past weekend. #cangelosisparks #cangyboys #baseball #travelbaseball #tiktok‚Ä¶ https://t.co/ICT6GcketR
1519013081082384384,newenglandwolv1,Tue Apr 26 17:58:35 +0000 2022,-71.4781025,43.5436675,Another College commitment from our EHLP Jr team.  Congrats to both Colin Larson (Louisville) &amp; Aidan Beckman (Cent‚Ä¶ https://t.co/LyQYIPvL5Z
1519013081711587342,Tha_Vonz,Tue Apr 26 17:58:35 +0000 2022,-80.8467855,35.209058999999996,Throwing money at a problem will not ultimately Solve the problem. If the habits of a person/community are not ch‚Ä¶ https://t.co/QLgdVH4wVK
1519013080885342212,imSoDopamine,Tue Apr 26 17:58:35 +0000 2022,-80.177668,25.9056055,If it was up to me I would stay fat lol I like nighas eating they words lol https://t.co/80CozquRbR
1519013082512642048,midwayenglewood,Tue Apr 26 17:58:35 +0000 2022,-93.1056485,44.9415155,@NASAWebb @TEDTalks when do we start getting pics?
1519013082793713669,18KJones,Tue Apr 26 17:58:35 +0000 2022,-91.0907995,30.4591,Cause what you do that for?
1519013082303021066,KeishontaMills,Tue Apr 26 17:58:35 +0000 2022,-78.657837,35.8439815,Y'all be üêÇ Volunteering üêÉ...nowü§£üòÇü§£   üòé https://t.co/sPaGAAB3IS
1519013085008310273,MatthewTwihard,Tue Apr 26 17:58:36 +0000 2022,-90.253346,30.0093515,@DisneyParks Thank you for standing up for the #LGBTQ community because #LGBTQRightsAreHumanRights and #RepresentationMatters.
1519013086904172545,larryau,Tue Apr 26 17:58:36 +0000 2022,-73.9487755,40.655138,@NYCuratrix @cpowellschool @CityCollegeNY Thank you! Looking forward to meeting you as well in the Fall! Always hap‚Ä¶ https://t.co/gsnFGslzLD
1519013087596072960,MrJayCroft,Tue Apr 26 17:58:36 +0000 2022,-117.104989,32.810012,@ChrisUniverseB The future is bright fam üåû
1519013087919149057,QuinnFos,Tue Apr 26 17:58:36 +0000 2022,-92.0611765,30.206079000000003,Sign up with my referral link NOW.#NftCommunity #Web3 #Tellie
1519013088497963009,Kinglytle30,Tue Apr 26 17:58:36 +0000 2022,-82.8541995,40.021793,Spilled milk get wiped up we don‚Äôt weep round here üí™üèæ
1519013089395593217,ZachNunezTV,Tue Apr 26 17:58:37 +0000 2022,-93.1977235,30.202771,@McNeeseBaseball @andruw_gonzales Drake references :) https://t.co/WnlMlDWJpX
1519013090997813248,Brownsugaknb,Tue Apr 26 17:58:37 +0000 2022,-79.418222,36.607196,@danniebear87 Exactly
1519013092868464643,pongantechno,Tue Apr 26 17:58:37 +0000 2022,-118.4119065,34.0207895,@Aidee_Ro @chrislake Yooo @chrislake this girl is an amazing photograph üî•
1519013092939624450,tmj_ctm_it,Tue Apr 26 17:58:37 +0000 2022,-72.5559746,41.7056381,"We're hiring in #Glastonbury, CT! Click the link in our bio to apply to this job and more: Senior Systems Analyst -‚Ä¶ https://t.co/nO668UfrCk"
1519013093111582720,tmj_TX_skltrd,Tue Apr 26 17:58:37 +0000 2022,-99.1559503,30.0482778,"We're hiring in #Kerrville, TX! Click the link in our bio to apply to this job and more: Maintenance Specialist III‚Ä¶ https://t.co/acjfNRw1s3"
1519013093321461761,RobertP32730809,Tue Apr 26 17:58:38 +0000 2022,-78.94820849999999,43.748101500000004,@WillN0tC0mply @CBCNews A variety of souces world wide...SO NOW I UNDERSTAND your view point &amp; the circumstances (‚Ä¶ https://t.co/CYF2ChvT0y
1519013093560385536,ArelyLiset,Tue Apr 26 17:58:38 +0000 2022,-123.029015,44.935084,@DaLegacy23 @J_Lawrence34 I prefer blue cheese dressing over ranch 100x more. There. I said it.
1519013093803659265,tmj_slc_transp,Tue Apr 26 17:58:38 +0000 2022,-111.6946475,40.2968979,"See our latest #Orem, UT #Transportation job opportunity and click the link in our bio to apply: Parts Delivery at O'Reilly Automotive"
1519013093933604864,tmj_chh_finance,Tue Apr 26 17:58:38 +0000 2022,-82.9987942,39.9611755,"If you're looking for work in #Columbus, OH, check out this #Underwriting job via the link in our bio: Personal Lines Underwriter at Branch"
1519013094542004225,Moorelife1,Tue Apr 26 17:58:38 +0000 2022,-83.804475,27.698681999999998,@DHeavenJr Man Ben a clown
1519013094327914497,tmj_NYC_secure,Tue Apr 26 17:58:38 +0000 2022,-73.9712488,40.7830603,"See our latest #NewYork, NY #security job opportunity and click the link in our bio to apply: 70181-LP Customer Ser‚Ä¶ https://t.co/hPbltZxe72"
1519013094587990016,tmj_usa_pharm,Tue Apr 26 17:58:38 +0000 2022,-81.8723084,26.640628,"Don't be shy. Score a job like ""Infectious Diseases Clinical Pharmacy Specialist - Ambulatory"" at Lee Health by ask‚Ä¶ https://t.co/0lEPSLXG7I"
1519013096223772672,tmj_CT_auto,Tue Apr 26 17:58:38 +0000 2022,-72.8836781,41.3691586,"Want to land a job like ""Automotive Technician"" at UPS? Applicant tracking systems look for specific keywords. Use‚Ä¶ https://t.co/DZfAfFmwhf"
1519013096244850689,Lawrenc00642407,Tue Apr 26 17:58:38 +0000 2022,-79.14179250000001,33.442004999999995,Cawthorn = Flake
1519013096609693696,AlainMabru,Tue Apr 26 17:58:38 +0000 2022,-83.804475,27.698681999999998,@TomiLahren @woodnbow1 @elonmusk @Twitter We will see how they really stole the election.. same for Facebook.. Domi‚Ä¶ https://t.co/ssTk1iICoL
1519013097578450944,Bonniekra56,Tue Apr 26 17:58:39 +0000 2022,-120.841443,37.060965,@electroboyusa Never followed
1519013099117838338,Clannmore,Tue Apr 26 17:58:39 +0000 2022,-123.93499800000001,49.1745345,@WritesBright @BylineTimes Yes PR - very definitely needed!!!!
1519013098631405570,ArilRale,Tue Apr 26 17:58:39 +0000 2022,-97.011168,32.655677999999995,Claire‚Äôs baby making an entrance the day Boone needs a blood transfusion definitely confirms what the guy was sayin‚Ä¶ https://t.co/vo6nEvIVCi
1519013099109507073,FirstNetRob,Tue Apr 26 17:58:39 +0000 2022,-72.858919,41.303103,Visiting with the East haven fire department and fulfilling lifelong bucket list dreams! While getting to show firs‚Ä¶ https://t.co/4KicNlnM40
1519013100783120389,Fuschia_Goddess,Tue Apr 26 17:58:39 +0000 2022,-71.95685449999999,41.362588,@VegasDuffy I'm a new follower and *I* will mention craps. Do you loathe Don't players as much as my husband does?‚Ä¶ https://t.co/P36dXRLRLf
1519013100875304965,guanakitooo16,Tue Apr 26 17:58:39 +0000 2022,-121.8737305,37.331159,Your first mistake was sipping La Croix. Your second mistake was being her FriendüòÇ
1519013101923938306,RevelRealty,Tue Apr 26 17:58:40 +0000 2022,-79.1354,43.0998,Check out our #listing in #NiagaraFalls #ON  #realestate #realtor https://t.co/OA5re4e9h1 https://t.co/j05sSGmQPQ
1519013104239083521,Weinbergrrrrr,Tue Apr 26 17:58:40 +0000 2022,-122.3306025,47.614817,@mikeydangelo @snackfight Are these exhibits just flush with cash
1519013104524349440,JoeShow68347212,Tue Apr 26 17:58:40 +0000 2022,-71.02134,42.256124,@Marie35396768 @OANN I'm just a regular person.In Boston media.I bring news...About a Massacre. 3/5/1770Boston‚Ä¶ https://t.co/CdfhiFBp3v
1519013103207424002,AndyAElder,Tue Apr 26 17:58:40 +0000 2022,-83.197256,42.316244,"Row, row, row your boat üö£‚Äç‚ôÄÔ∏è gently down the stream... merrily, merrily, merrily, merrily your life is BUT a DREAM.‚Ä¶ https://t.co/52PRceKm2K"
1519013106399252482,LewDawg85,Tue Apr 26 17:58:41 +0000 2022,-93.1977235,30.202771,@DontHurtEmCole I gots too.
1519013106411839488,ConnorLalonde1,Tue Apr 26 17:58:41 +0000 2022,-71.4702855,42.0763675,@SteelersMafiaa Ik ik Mahomes has a ring and Lamar doesn‚Äôt. But I think that lamar has inconsistent skill that when‚Ä¶ https://t.co/IR8o9hN5vG
1519013105212211201,FirstTesla,Tue Apr 26 17:58:40 +0000 2022,-97.34391500000001,37.6838965,"I know the world sucks right now and the stock market is way down, but at least Microsoft Word made me smile. Thank‚Ä¶ https://t.co/GtQCSIslNs"
1519013106927681536,JanneauxD,Tue Apr 26 17:58:41 +0000 2022,-77.7289885,39.634461,@AmandaLarreni Yepper
1519013108290920449,PandorasBoxxxx,Tue Apr 26 17:58:41 +0000 2022,-87.732013,41.8335845,"@Rory_Tatum I know ‚Ä¶ I‚Äôm saying you don‚Äôt have to mix it with cardio all the time , just can just do strength &amp; burn just as much calories"
1519013108479664129,TroyWhelan,Tue Apr 26 17:58:41 +0000 2022,-93.2620465,44.9706105,@mykhailokovinov Awesome!  üëè
1519013109104447488,Phase2Fab,Tue Apr 26 17:58:41 +0000 2022,-117.728415,33.607129,A flip in Laguna Woods! https://t.co/sOtWfxgmCQ
1519013109611958272,MiccThirsty,Tue Apr 26 17:58:41 +0000 2022,-118.4119065,34.0207895,I‚Äôm ready to pack my shit and go get some beers..
1519013114804641792,Kadenxe_Music,Tue Apr 26 17:58:43 +0000 2022,-73.723025,45.557830499999994,@333dontay Np bro can‚Äôt wait for this to drop
1519013115559649281,PrimetimeBall_,Tue Apr 26 17:58:43 +0000 2022,-77.466665,43.159805,@Ry_Feathers @joey_frascati @LeahCF Sorry to hear this
1519013116264300545,mr_extRODinary,Tue Apr 26 17:58:43 +0000 2022,-89.8494555,34.9563885,Mane told her he gon help her stretch. Or stretch her out. Either or lmao
1519013117153271809,rainhacyn,Tue Apr 26 17:58:43 +0000 2022,-111.928142,33.392883999999995,Dead ass üòÇ
1519013117321048064,line_slayer1,Tue Apr 26 17:58:43 +0000 2022,-122.116119,37.9956265,@TheGameDayMLB As many as the Yankees are gonna win this year. 90 tops
1519013117375692801,Kathologist,Tue Apr 26 17:58:43 +0000 2022,-122.92348799999999,39.0431235,@TrishasWCFireWx Hey lady!Rest &amp; recoup Thanks for all you do!
1519013119238062083,ronnyj817,Tue Apr 26 17:58:44 +0000 2022,-97.28591349999999,32.7799665,Yikes
1519013120143990794,kiss_myjasss,Tue Apr 26 17:58:44 +0000 2022,-76.826504,38.9073795,The way this nigga low keys checks me before I leave out is a CLEAR indication ‚Ä¶. HE GOT ME FUCKED UP üó£üòÇ
1519013121280643073,fuckdigitaldash,Tue Apr 26 17:58:44 +0000 2022,-96.7617535,32.819858499999995,@Se7enChains lmk dey a womens 8 but i have another pair thtts a 32
1519013122375176193,d4kinthesaddle,Tue Apr 26 17:58:44 +0000 2022,-122.1426895,47.750040999999996,BEN-CH SIMMONS ü§£ü§£ü§£üòÇüòÇüòÇüòÇüòÇü§£ü§£üíÄüíÄüíÄüíÄ
1519013123256160263,bephillip33,Tue Apr 26 17:58:45 +0000 2022,-76.865983,38.8527645,"There are no fires in Maryland, West Virginia or DC. https://t.co/5ZLNTEO5zp"
1519013123474309121,OhHeyJose,Tue Apr 26 17:58:45 +0000 2022,-100.0768885,31.1688935,@RandyGregory_4 @Marcus_Mosher Jerry Jones such an L owner and GM
1519013123805483008,MarkMassaro15,Tue Apr 26 17:58:45 +0000 2022,-118.06267,33.800338999999994,If anyone noticed I have a one track mind on different things
1519013124229193729,pariswithakay,Tue Apr 26 17:58:45 +0000 2022,-74.066663,40.7180015,Any time I feel in love I hear jasmins voice in my head ‚Äúmy man my man my man‚Äù ‚ÄúSTAND up!‚Äù üíÄüíÄüíÄ
1519013124099264513,ArtsandClouds,Tue Apr 26 17:58:45 +0000 2022,-73.723025,45.557830499999994,@djrothkopf @pjofyork Elon Musk bought himself $44Billion worth of attention. He could actually care less about Fre‚Ä¶ https://t.co/jipMfuvklV
1519013125244309504,maingear,Tue Apr 26 17:58:45 +0000 2022,-74.4983685,40.5740295,"Enjoy your new R1, and welcome to the team! üòéüëäIf you have any questions, reach us at 1-888-MAINGEAR or email supp‚Ä¶ https://t.co/O6mpRlZH4T"
1519013125865025536,Sony12Play,Tue Apr 26 17:58:45 +0000 2022,-84.433106,33.7671945,Poor Steffy! üò≠üò≠ #BoldandBeautiful @BandB_CBS
1519013126028419075,writerscupoftea,Tue Apr 26 17:58:45 +0000 2022,-122.3306025,47.614817,@EYEOFNIGHTVALE This is two ways of coming it like huh
1519013127551131650,Rell_GetBuckets,Tue Apr 26 17:58:46 +0000 2022,-76.148999,39.4977025,@Pattytrill No lies detected lol
1519013127475634177,Lisa_APRN,Tue Apr 26 17:58:46 +0000 2022,-89.92202900000001,35.1335205,Today is #UTHSC giving day. I donated to the Dr. Melody Waller Memorial Scholarship fund. Please consider giving so‚Ä¶ https://t.co/kVKxmVKjfs
1519013128096387073,TheCaptain1999,Tue Apr 26 17:58:46 +0000 2022,-79.85736349999999,36.090396999999996,@CWHarris7 Same!
1519013129560154118,TeamGrove1,Tue Apr 26 17:58:46 +0000 2022,-95.44648649999999,29.838495,@TxBallCoach40 @Matt_Stepp817 @mikeforman21 @dctf Columbus is playing Giddings lol then La Grange after‚Ä¶..
1519013130164215808,yorkdukeyork,Tue Apr 26 17:58:46 +0000 2022,-74.10636600000001,40.6707835,@stevebritgimp Don't be (adjacent to) evil.
1519013130663251968,CADesignStudio,Tue Apr 26 17:58:46 +0000 2022,-78.657837,35.8439815,Is it too early to start drinking? 2pm...Tuesday ü•¥
1519013130952654848,vipincreates,Tue Apr 26 17:58:46 +0000 2022,-86.1429225,39.7795625,It will be exciting for us (product designers) to see how @elonmusk would be taking certain Twitter product decisio‚Ä¶ https://t.co/CGoushIWTL
1519013131242065923,niamommie,Tue Apr 26 17:58:47 +0000 2022,-77.0908695,38.81738,Me too sis üòõ‚ù§Ô∏è
1519013132231872512,tmj_oh_nursing,Tue Apr 26 17:58:47 +0000 2022,-82.9754649,40.8083909,"We're hiring! Click to apply: Registered Nurse (RN) - Oncology - https://t.co/OsPDnbFI6O #Nursing #Bucyrus, OH"
1519013132550688773,MatthewTwihard,Tue Apr 26 17:58:47 +0000 2022,-90.253346,30.0093515,@Disney @DisneyParks @WaltDisneyWorld @WaltDisneyCo Thank you for standing up for the #LGBTQ community because‚Ä¶ https://t.co/HbPbWHzQUO
1519013133133570049,Jpeterson171,Tue Apr 26 17:58:47 +0000 2022,-111.08292900000001,45.68785,"You‚Äôre trying to figure if you can go out to dinner or not, I wouldn‚Äôt worry about what Elon is doing with his money"
1519013133314011136,tmj_bna_jobs,Tue Apr 26 17:58:47 +0000 2022,-86.6049983,36.1798991,"See our latest #Nashville, TN #Hospitality job opportunity and click the link in our bio to apply: Prep Cook at Outback Steakhouse"
1519013133410578434,JaakeNBaake,Tue Apr 26 17:58:47 +0000 2022,-84.51578599999999,33.846765000000005,@BeachDog15 Lmao people actually thought this was real?
1519013133418999808,KcRogers6,Tue Apr 26 17:58:47 +0000 2022,-81.539806,35.9038855,"Just found out 2 more staff people just left our workshop, I'm definitely upset about itüò≠üò≠üò≠üò≠üò≠üò≠üò≠ @thundermascot"
1519013133490130944,tmj_ca_purch,Tue Apr 26 17:58:47 +0000 2022,-117.7946942,33.6839473,"At SCA, we offer a work culture that matches your needs and life. Find best-in-class benefits, training and schedul‚Ä¶ https://t.co/3MRZFQUCrh"
1519013133850918912,Tennesseine,Tue Apr 26 17:58:47 +0000 2022,-80.8467855,35.209058999999996,"@joncoopertweets @Pocolilli16 If I carried a gun into CLT, I‚Äôd be in jail. Why does this little punk keep getting‚Ä¶ https://t.co/4v2Cuvmdc6"
1519013133964091393,tmj_mke_edu,Tue Apr 26 17:58:47 +0000 2022,-87.8211854,42.5847425,Join the The Stepping Stones Group team! See our latest job opening here: https://t.co/GaBXbDhYCY #SLPeeps #SLP
1519013134354173952,tmj_vap_edu,Tue Apr 26 17:58:47 +0000 2022,-76.3347838,37.0517234,"Join the The Stepping Stones Group team! See our latest School/Home/Community job openings, including ""Speech Langu‚Ä¶ https://t.co/NcYxG7phHM"
1519013134618402816,tmj_KY_transp,Tue Apr 26 17:58:47 +0000 2022,-88.6000478,37.0833893,"1,500 employees have been working for Brinks for over 10 years. Join our team and see why: https://t.co/UHAITfX5UW‚Ä¶ https://t.co/NpfLfShP0l"
1519013135599865857,beautiifuldecay,Tue Apr 26 17:58:48 +0000 2022,-118.03698299999999,33.818909500000004,@VeeAlmighty Yea there really ain‚Äôt much you can do with that one.
1519013135759265792,Joe_Knows___,Tue Apr 26 17:58:48 +0000 2022,-118.07951,33.755328,Follow or fade meMIA F5 -120CWS TT o4.5 -120DET F5 +110Hate the juice but love the plays ü´†@FadeUsports
1519013136388526080,spaceyjdjames,Tue Apr 26 17:58:48 +0000 2022,-86.27053950000001,45.001180000000005,@MrThomasJerome You hear Squats are coming back?!
1519013137751547905,fernie_705,Tue Apr 26 17:58:48 +0000 2022,-118.1074395,34.0101865,"@WorldLatinHoney This is crazy! the baby looks so scared, and confused, also the guy looks very much drunk or drugg‚Ä¶ https://t.co/hzQkta2IC2"
1519013138191949824,JohnA_USMCvet,Tue Apr 26 17:58:48 +0000 2022,-120.47181,37.316222499999995,@JustAMomNamedMP We ALL need each other.#StrongerTogether
1519013138997268481,TheDemoncade,Tue Apr 26 17:58:48 +0000 2022,-112.12467649999999,33.5528625,@BenPu_nbc Dude should hurry up and expire already. One less asshole in the world.
1519013140092043265,EJ_Cheung,Tue Apr 26 17:58:49 +0000 2022,-71.112377,42.3781975,@marielombardo_ DEFEAT THEM. One almost pooped on me yesterday.
1519013138946998273,mollyforvermont,Tue Apr 26 17:58:48 +0000 2022,-73.088297,44.8068285,Thank you St. Albans! We enjoyed every bit of the return of the Vermont Maple Festival and especially seeing so man‚Ä¶ https://t.co/EyUxt4I2Sn
1519013141014728706,tmj_flf_cstsrv,Tue Apr 26 17:58:49 +0000 2022,-80.3141739,25.7923863,"At Aetna, a CVS Health company, we use our strength and knowledge to deliver on the goals that matter most to the p‚Ä¶ https://t.co/JwcIYiW3Wk"
1519013141484650496,georges78131971,Tue Apr 26 17:58:49 +0000 2022,-97.34391500000001,37.6838965,@stkmanfred @TheLiberalPoet Ok. Thanks for sharing.
1519013141635420161,NorthsidePigeon,Tue Apr 26 17:58:49 +0000 2022,-122.4359785,37.7706565,@DaveKaval @elonmusk What a weird response. Wtf does Elon Musk have to do with the A's?
1519013142717739009,HeManseth,Tue Apr 26 17:58:49 +0000 2022,-89.5694915,44.900818,@yelichfans All day  every day
1519013143594209282,_XoxoCourt,Tue Apr 26 17:58:49 +0000 2022,-118.4119065,34.0207895,Saw the SITW lineup and immediately looked up flights back home. Based on these prices yall have fun and post videos üò≠
1519013143695048706,TylerTalksTurf,Tue Apr 26 17:58:50 +0000 2022,-85.9785995,35.8305215,Spring dead spot on M-85 zoysiagrass maintained for putting green turf. Preventative fungicides will be necessary m‚Ä¶ https://t.co/VLUA7tLTaz
1519013146052251650,LizCrawfordWTSP,Tue Apr 26 17:58:50 +0000 2022,-82.44269399999999,27.9965945,Had a tough conversation with a Corporal with the @HCSOSheriff about the reality of addiction right now. He said us‚Ä¶ https://t.co/GfIcwsUevn
1519013146060632066,Warllayne,Tue Apr 26 17:58:50 +0000 2022,-71.4356815,42.305097,What does this mean someone with blue hair pls tell me https://t.co/3OFgqwXgmU
1519013146966515713,Alex_Friedman31,Tue Apr 26 17:58:50 +0000 2022,-74.538531,40.532546999999994,This is absolutely amazing
1519013147889344512,JonHollier,Tue Apr 26 17:58:51 +0000 2022,-92.0611765,30.206079000000003,About to add Hub City Elite to my collection of gym memberships
1519013147969048577,SAsportshonk,Tue Apr 26 17:58:51 +0000 2022,-98.5406515,29.417501,@photAGraph @TobinCenterSA Yeah the Tobin is a 1st class venue. The Thompson Hotel next door has a roof bar and res‚Ä¶ https://t.co/MI0imYC0H4
1519013147801047040,RobertNardin,Tue Apr 26 17:58:50 +0000 2022,-122.630908,45.536402,@hodgetwins Curious if he caught it from her or vice versa https://t.co/6m37u9w0hG
1519013149747339264,yanniiiiibfit,Tue Apr 26 17:58:51 +0000 2022,-73.8494415,40.8503475,My anxietyü§Ø
1519013149965434881,BlazingPasta,Tue Apr 26 17:58:51 +0000 2022,-75.3067705,39.937821,I just put a penis in my butt for Platinum Star Smash S14:E1 https://t.co/4mYQeZx4bV via @smashgg
1519013151341223937,daveconte1971,Tue Apr 26 17:58:51 +0000 2022,-73.8494415,40.8503475,@stinkydog480 @SaraGonzalesTX Anecdotal crap; I don‚Äôt even believe you‚Äôre telling the truth
1519013150464614401,WDWNT,Tue Apr 26 17:58:51 +0000 2022,-81.563863,28.363166,Where are we?? Can you name the spot? ü§≠ https://t.co/RcMmSrgFTX
1519013151571947522,ashleyrcomans,Tue Apr 26 17:58:51 +0000 2022,-79.8748475,40.445386,üëÄüëÄüëÄ I haven‚Äôt even been sharing my Wordle games. Bc idk what I wanna doüôÑ I will take this opportunity to say‚Ä¶ https://t.co/FnemMbYgLn
1519013151966171137,BobbyThakkar,Tue Apr 26 17:58:51 +0000 2022,-73.9685415,40.780709,"@KristinEIise Gurl, I‚Äôm trying here. Just getting started, give me the decade"
1519013152926715904,nirradical,Tue Apr 26 17:58:52 +0000 2022,-82.985772,39.9946835,"Why don't streets ever have fun names?  If I was creating a new street I would name it something like ""Fun Lane"" or‚Ä¶ https://t.co/uVpIlmDAvx"
1519013154113691648,teezy410,Tue Apr 26 17:58:52 +0000 2022,-80.18183450000001,38.9201425,@charligiirl We are the energy time to turn up!#AMCNOTLEAVING
1519013154323324929,MyzPKat,Tue Apr 26 17:58:52 +0000 2022,-76.593943,24.074967,@bem2t7 Chileeee.... https://t.co/aULEslD7O8
1519013155351023616,mjhall,Tue Apr 26 17:58:52 +0000 2022,-73.21440829,44.45802033,"I'm at Noyes Automotive And Tire in Burlington, VT https://t.co/bes9vsMmmG"
1519013155548057601,lf_oliveira1,Tue Apr 26 17:58:52 +0000 2022,-73.723025,45.557830499999994,Today we have the great honor to receive in @ACIWorld offices in Montreal the Ambassador @Captsully @USAmbICAO .Tha‚Ä¶ https://t.co/biP2uRBUPM
1519013155405393920,TimeAsteris,Tue Apr 26 17:58:52 +0000 2022,-112.4249755,33.4128725,@jotakboy @KingPlayzMc @Sachaerker @NaishiSukui @MinnowCandy Smh since people are fucking stupid and don't know the‚Ä¶ https://t.co/ekMVi0guPd
1519013157053808641,JEgglestonWFXG,Tue Apr 26 17:58:53 +0000 2022,-82.063185,33.4407175,Mayor Pro Yem Bobby Williams says he is uncomfortable voting on a measure without the Sheriff‚Äôs office present. Cla‚Ä¶ https://t.co/w0PDBLzbWo
1519013157292806146,lihcaS,Tue Apr 26 17:58:53 +0000 2022,-122.061771,47.67881250000001,Praise be https://t.co/XC464xf9lS
1519013158995718145,ThisIsNotKam,Tue Apr 26 17:58:53 +0000 2022,-118.4119065,34.0207895,@Mic_45 I mean his son is playin him‚Ä¶I don‚Äôt think he would do that if his dad was getting slandered
1519013159637508097,hvnlykenn,Tue Apr 26 17:58:53 +0000 2022,-87.732013,41.8335845,@deaniechen @lollapalooza There‚Äôs a portal to apply for a press pass!
1519013161633988610,stevenamcqueen,Tue Apr 26 17:58:54 +0000 2022,-83.804475,27.698681999999998,@spratto9 Well that series is over.
1519013161499873280,clevelandevents,Tue Apr 26 17:58:54 +0000 2022,-81.705467,41.495939500000006,Breaking:
